# vtk DataFile Version 4.0
vtk output
ASCII
DATASET UNSTRUCTURED_GRID
POINTS 3567 float
0.0000000e+00 1.0000000e+01 1.4000000e+01 
0.0000000e+00 9.0000000e+00 1.4000000e+01 
1.0000000e+00 1.0000000e+01 1.4000000e+01 
1.0000000e+00 9.0000000e+00 1.4000000e+01 
0.0000000e+00 8.0000000e+00 1.4000000e+01 
2.0000000e+00 1.0000000e+01 1.4000000e+01 
2.0000000e+00 9.0000000e+00 1.4000000e+01 
1.0000000e+00 8.0000000e+00 1.4000000e+01 
2.0000000e+00 8.0000000e+00 1.4000000e+01 
0.0000000e+00 7.0000000e+00 1.4000000e+01 
3.0000000e+00 1.0000000e+01 1.4000000e+01 
3.0000000e+00 9.0000000e+00 1.4000000e+01 
1.0000000e+00 7.0000000e+00 1.4000000e+01 
3.0000000e+00 8.0000000e+00 1.4000000e+01 
2.0000000e+00 7.0000000e+00 1.4000000e+01 
0.0000000e+00 6.0000000e+00 1.4000000e+01 
4.0000000e+00 1.0000000e+01 1.4000000e+01 
4.0000000e+00 9.0000000e+00 1.4000000e+01 
1.0000000e+00 6.0000000e+00 1.4000000e+01 
3.0000000e+00 7.0000000e+00 1.4000000e+01 
2.0000000e+00 6.0000000e+00 1.4000000e+01 
4.0000000e+00 8.0000000e+00 1.4000000e+01 
0.0000000e+00 5.0000000e+00 1.4000000e+01 
5.0000000e+00 1.0000000e+01 1.4000000e+01 
3.0000000e+00 6.0000000e+00 1.4000000e+01 
4.0000000e+00 7.0000000e+00 1.4000000e+01 
1.0000000e+00 5.0000000e+00 1.4000000e+01 
5.0000000e+00 9.0000000e+00 1.4000000e+01 
2.0000000e+00 5.0000000e+00 1.4000000e+01 
5.0000000e+00 8.0000000e+00 1.4000000e+01 
4.0000000e+00 6.0000000e+00 1.4000000e+01 
3.0000000e+00 5.0000000e+00 1.4000000e+01 
5.0000000e+00 7.0000000e+00 1.4000000e+01 
0.0000000e+00 4.0000000e+00 1.4000000e+01 
6.0000000e+00 1.0000000e+01 1.4000000e+01 
1.0000000e+00 4.0000000e+00 1.4000000e+01 
6.0000000e+00 9.0000000e+00 1.4000000e+01 
2.0000000e+00 4.0000000e+00 1.4000000e+01 
6.0000000e+00 8.0000000e+00 1.4000000e+01 
4.0000000e+00 5.0000000e+00 1.4000000e+01 
5.0000000e+00 6.0000000e+00 1.4000000e+01 
3.0000000e+00 4.0000000e+00 1.4000000e+01 
6.0000000e+00 7.0000000e+00 1.4000000e+01 
0.0000000e+00 3.0000000e+00 1.4000000e+01 
7.0000000e+00 1.0000000e+01 1.4000000e+01 
5.0000000e+00 5.0000000e+00 1.4000000e+01 
1.0000000e+00 3.0000000e+00 1.4000000e+01 
7.0000000e+00 9.0000000e+00 1.4000000e+01 
4.0000000e+00 4.0000000e+00 1.4000000e+01 
6.0000000e+00 6.0000000e+00 1.4000000e+01 
2.0000000e+00 3.0000000e+00 1.4000000e+01 
7.0000000e+00 8.0000000e+00 1.4000000e+01 
3.0000000e+00 3.0000000e+00 1.4000000e+01 
7.0000000e+00 7.0000000e+00 1.4000000e+01 
5.0000000e+00 4.0000000e+00 1.4000000e+01 
6.0000000e+00 5.0000000e+00 1.4000000e+01 
0.0000000e+00 2.0000000e+00 1.4000000e+01 
8.0000000e+00 1.0000000e+01 1.4000000e+01 
1.0000000e+00 2.0000000e+00 1.4000000e+01 
4.0000000e+00 3.0000000e+00 1.4000000e+01 
8.0000000e+00 9.0000000e+00 1.4000000e+01 
7.0000000e+00 6.0000000e+00 1.4000000e+01 
8.0000000e+00 8.0000000e+00 1.4000000e+01 
2.0000000e+00 2.0000000e+00 1.4000000e+01 
6.0000000e+00 4.0000000e+00 1.4000000e+01 
8.0000000e+00 7.0000000e+00 1.4000000e+01 
3.0000000e+00 2.0000000e+00 1.4000000e+01 
5.0000000e+00 3.0000000e+00 1.4000000e+01 
7.0000000e+00 5.0000000e+00 1.4000000e+01 
8.0000000e+00 6.0000000e+00 1.4000000e+01 
4.0000000e+00 2.0000000e+00 1.4000000e+01 
0.0000000e+00 1.0000000e+00 1.4000000e+01 
9.0000000e+00 1.0000000e+01 1.4000000e+01 
1.0000000e+00 1.0000000e+00 1.4000000e+01 
9.0000000e+00 9.0000000e+00 1.4000000e+01 
2.0000000e+00 1.0000000e+00 1.4000000e+01 
6.0000000e+00 3.0000000e+00 1.4000000e+01 
7.0000000e+00 4.0000000e+00 1.4000000e+01 
9.0000000e+00 8.0000000e+00 1.4000000e+01 
8.0000000e+00 5.0000000e+00 1.4000000e+01 
5.0000000e+00 2.0000000e+00 1.4000000e+01 
3.0000000e+00 1.0000000e+00 1.4000000e+01 
9.0000000e+00 7.0000000e+00 1.4000000e+01 
4.0000000e+00 1.0000000e+00 1.4000000e+01 
9.0000000e+00 6.0000000e+00 1.4000000e+01 
7.0000000e+00 3.0000000e+00 1.4000000e+01 
0.0000000e+00 0.0000000e+00 1.4000000e+01 
1.0000000e+01 1.0000000e+01 1.4000000e+01 
6.0000000e+00 2.0000000e+00 1.4000000e+01 
8.0000000e+00 4.0000000e+00 1.4000000e+01 
1.0000000e+01 9.0000000e+00 1.4000000e+01 
0.0000000e+00 0.0000000e+00 1.3000000e+01 
1.0000000e+00 0.0000000e+00 1.4000000e+01 
1.0000000e+00 0.0000000e+00 1.3000000e+01 
1.0000000e+01 8.0000000e+00 1.4000000e+01 
0.0000000e+00 0.0000000e+00 1.2000000e+01 
2.0000000e+00 0.0000000e+00 1.4000000e+01 
1.0000000e+00 0.0000000e+00 1.2000000e+01 
2.0000000e+00 0.0000000e+00 1.3000000e+01 
9.0000000e+00 5.0000000e+00 1.4000000e+01 
5.0000000e+00 1.0000000e+00 1.4000000e+01 
2.0000000e+00 0.0000000e+00 1.2000000e+01 
0.0000000e+00 0.0000000e+00 1.1000000e+01 
3.0000000e+00 0.0000000e+00 1.4000000e+01 
1.0000000e+01 7.0000000e+00 1.4000000e+01 
1.0000000e+00 0.0000000e+00 1.1000000e+01 
3.0000000e+00 0.0000000e+00 1.3000000e+01 
8.0000000e+00 3.0000000e+00 1.4000000e+01 
2.0000000e+00 0.0000000e+00 1.1000000e+01 
3.0000000e+00 0.0000000e+00 1.2000000e+01 
7.0000000e+00 2.0000000e+00 1.4000000e+01 
0.0000000e+00 0.0000000e+00 1.0000000e+01 
4.0000000e+00 0.0000000e+00 1.4000000e+01 
1.0000000e+01 6.0000000e+00 1.4000000e+01 
6.0000000e+00 1.0000000e+00 1.4000000e+01 
1.0000000e+00 0.0000000e+00 1.0000000e+01 
4.0000000e+00 0.0000000e+00 1.3000000e+01 
9.0000000e+00 4.0000000e+00 1.4000000e+01 
3.0000000e+00 0.0000000e+00 1.1000000e+01 
2.0000000e+00 0.0000000e+00 1.0000000e+01 
4.0000000e+00 0.0000000e+00 1.2000000e+01 
1.1000000e+01 1.0000000e+01 1.4000000e+01 
1.1000000e+01 9.0000000e+00 1.4000000e+01 
1.1000000e+01 8.0000000e+00 1.4000000e+01 
0.0000000e+00 0.0000000e+00 9.0000000e+00 
5.0000000e+00 0.0000000e+00 1.4000000e+01 
1.0000000e+01 5.0000000e+00 1.4000000e+01 
3.0000000e+00 0.0000000e+00 1.0000000e+01 
4.0000000e+00 0.0000000e+00 1.1000000e+01 
1.0000000e+00 0.0000000e+00 9.0000000e+00 
5.0000000e+00 0.0000000e+00 1.3000000e+01 
8.0000000e+00 2.0000000e+00 1.4000000e+01 
2.0000000e+00 0.0000000e+00 9.0000000e+00 
5.0000000e+00 0.0000000e+00 1.2000000e+01 
1.1000000e+01 7.0000000e+00 1.4000000e+01 
7.0000000e+00 1.0000000e+00 1.4000000e+01 
9.0000000e+00 3.0000000e+00 1.4000000e+01 
4.0000000e+00 0.0000000e+00 1.0000000e+01 
3.0000000e+00 0.0000000e+00 9.0000000e+00 
5.0000000e+00 0.0000000e+00 1.1000000e+01 
1.0000000e+01 4.0000000e+00 1.4000000e+01 
0.0000000e+00 0.0000000e+00 8.0000000e+00 
6.0000000e+00 0.0000000e+00 1.4000000e+01 
1.1000000e+01 6.0000000e+00 1.4000000e+01 
1.0000000e+00 0.0000000e+00 8.0000000e+00 
6.0000000e+00 0.0000000e+00 1.3000000e+01 
2.0000000e+00 0.0000000e+00 8.0000000e+00 
6.0000000e+00 0.0000000e+00 1.2000000e+01 
4.0000000e+00 0.0000000e+00 9.0000000e+00 
5.0000000e+00 0.0000000e+00 1.0000000e+01 
1.2000000e+01 1.0000000e+01 1.4000000e+01 
3.0000000e+00 0.0000000e+00 8.0000000e+00 
6.0000000e+00 0.0000000e+00 1.1000000e+01 
8.0000000e+00 1.0000000e+00 1.4000000e+01 
1.2000000e+01 9.0000000e+00 1.4000000e+01 
9.0000000e+00 2.0000000e+00 1.4000000e+01 
1.1000000e+01 5.0000000e+00 1.4000000e+01 
1.2000000e+01 8.0000000e+00 1.4000000e+01 
1.0000000e+01 3.0000000e+00 1.4000000e+01 
0.0000000e+00 0.0000000e+00 7.0000000e+00 
7.0000000e+00 0.0000000e+00 1.4000000e+01 
1.0000000e+00 0.0000000e+00 7.0000000e+00 
7.0000000e+00 0.0000000e+00 1.3000000e+01 
5.0000000e+00 0.0000000e+00 9.0000000e+00 
4.0000000e+00 0.0000000e+00 8.0000000e+00 
6.0000000e+00 0.0000000e+00 1.0000000e+01 
2.0000000e+00 0.0000000e+00 7.0000000e+00 
7.0000000e+00 0.0000000e+00 1.2000000e+01 
1.2000000e+01 7.0000000e+00 1.4000000e+01 
1.1000000e+01 4.0000000e+00 1.4000000e+01 
3.0000000e+00 0.0000000e+00 7.0000000e+00 
7.0000000e+00 0.0000000e+00 1.1000000e+01 
1.2000000e+01 6.0000000e+00 1.4000000e+01 
5.0000000e+00 0.0000000e+00 8.0000000e+00 
6.0000000e+00 0.0000000e+00 9.0000000e+00 
9.0000000e+00 1.0000000e+00 1.4000000e+01 
0.0000000e+00 0.0000000e+00 6.0000000e+00 
8.0000000e+00 0.0000000e+00 1.4000000e+01 
1.0000000e+01 2.0000000e+00 1.4000000e+01 
4.0000000e+00 0.0000000e+00 7.0000000e+00 
1.0000000e+00 0.0000000e+00 6.0000000e+00 
7.0000000e+00 0.0000000e+00 1.0000000e+01 
8.0000000e+00 0.0000000e+00 1.3000000e+01 
2.0000000e+00 0.0000000e+00 6.0000000e+00 
8.0000000e+00 0.0000000e+00 1.2000000e+01 
1.2000000e+01 5.0000000e+00 1.4000000e+01 
1.3000000e+01 1.0000000e+01 1.4000000e+01 
1.1000000e+01 3.0000000e+00 1.4000000e+01 
1.3000000e+01 9.0000000e+00 1.4000000e+01 
6.0000000e+00 0.0000000e+00 8.0000000e+00 
8.0000000e+00 0.0000000e+00 1.1000000e+01 
3.0000000e+00 0.0000000e+00 6.0000000e+00 
1.3000000e+01 8.0000000e+00 1.4000000e+01 
5.0000000e+00 0.0000000e+00 7.0000000e+00 
7.0000000e+00 0.0000000e+00 9.0000000e+00 
1.3000000e+01 7.0000000e+00 1.4000000e+01 
4.0000000e+00 0.0000000e+00 6.0000000e+00 
8.0000000e+00 0.0000000e+00 1.0000000e+01 
1.2000000e+01 4.0000000e+00 1.4000000e+01 
0.0000000e+00 0.0000000e+00 5.0000000e+00 
9.0000000e+00 0.0000000e+00 1.4000000e+01 
1.0000000e+01 1.0000000e+00 1.4000000e+01 
1.0000000e+00 0.0000000e+00 5.0000000e+00 
9.0000000e+00 0.0000000e+00 1.3000000e+01 
1.1000000e+01 2.0000000e+00 1.4000000e+01 
1.3000000e+01 6.0000000e+00 1.4000000e+01 
6.0000000e+00 0.0000000e+00 7.0000000e+00 
2.0000000e+00 0.0000000e+00 5.0000000e+00 
7.0000000e+00 0.0000000e+00 8.0000000e+00 
9.0000000e+00 0.0000000e+00 1.2000000e+01 
8.0000000e+00 0.0000000e+00 9.0000000e+00 
5.0000000e+00 0.0000000e+00 6.0000000e+00 
3.0000000e+00 0.0000000e+00 5.0000000e+00 
9.0000000e+00 0.0000000e+00 1.1000000e+01 
1.2000000e+01 3.0000000e+00 1.4000000e+01 
1.3000000e+01 5.0000000e+00 1.4000000e+01 
0.0000000e+00 1.0000000e+01 0.0000000e+00 
1.4000000e+01 1.0000000e+01 1.4000000e+01 
0.0000000e+00 9.0000000e+00 0.0000000e+00 
1.0000000e+00 1.0000000e+01 0.0000000e+00 
4.0000000e+00 0.0000000e+00 5.0000000e+00 
9.0000000e+00 0.0000000e+00 1.0000000e+01 
1.4000000e+01 9.0000000e+00 1.4000000e+01 
7.0000000e+00 0.0000000e+00 7.0000000e+00 
1.0000000e+00 9.0000000e+00 0.0000000e+00 
0.0000000e+00 8.0000000e+00 0.0000000e+00 
2.0000000e+00 1.0000000e+01 0.0000000e+00 
0.0000000e+00 0.0000000e+00 4.0000000e+00 
1.0000000e+01 0.0000000e+00 1.4000000e+01 
6.0000000e+00 0.0000000e+00 6.0000000e+00 
8.0000000e+00 0.0000000e+00 8.0000000e+00 
1.4000000e+01 8.0000000e+00 1.4000000e+01 
1.0000000e+01 0.0000000e+00 1.3000000e+01 
1.0000000e+00 8.0000000e+00 0.0000000e+00 
2.0000000e+00 9.0000000e+00 0.0000000e+00 
1.0000000e+00 0.0000000e+00 4.0000000e+00 
1.1000000e+01 1.0000000e+00 1.4000000e+01 
1.0000000e+01 0.0000000e+00 1.2000000e+01 
2.0000000e+00 8.0000000e+00 0.0000000e+00 
2.0000000e+00 0.0000000e+00 4.0000000e+00 
0.0000000e+00 7.0000000e+00 0.0000000e+00 
3.0000000e+00 1.0000000e+01 0.0000000e+00 
1.3000000e+01 4.0000000e+00 1.4000000e+01 
1.4000000e+01 7.0000000e+00 1.4000000e+01 
1.0000000e+00 7.0000000e+00 0.0000000e+00 
3.0000000e+00 9.0000000e+00 0.0000000e+00 
5.0000000e+00 0.0000000e+00 5.0000000e+00 
9.0000000e+00 0.0000000e+00 9.0000000e+00 
1.2000000e+01 2.0000000e+00 1.4000000e+01 
2.0000000e+00 7.0000000e+00 0.0000000e+00 
3.0000000e+00 8.0000000e+00 0.0000000e+00 
3.0000000e+00 0.0000000e+00 4.0000000e+00 
1.0000000e+01 0.0000000e+00 1.1000000e+01 
0.0000000e+00 6.0000000e+00 0.0000000e+00 
4.0000000e+00 1.0000000e+01 0.0000000e+00 
1.4000000e+01 6.0000000e+00 1.4000000e+01 
8.0000000e+00 0.0000000e+00 7.0000000e+00 
1.0000000e+00 6.0000000e+00 0.0000000e+00 
4.0000000e+00 9.0000000e+00 0.0000000e+00 
7.0000000e+00 0.0000000e+00 6.0000000e+00 
3.0000000e+00 7.0000000e+00 0.0000000e+00 
2.0000000e+00 6.0000000e+00 0.0000000e+00 
4.0000000e+00 8.0000000e+00 0.0000000e+00 
4.0000000e+00 0.0000000e+00 4.0000000e+00 
1.0000000e+01 0.0000000e+00 1.0000000e+01 
6.0000000e+00 0.0000000e+00 5.0000000e+00 
9.0000000e+00 0.0000000e+00 8.0000000e+00 
1.3000000e+01 3.0000000e+00 1.4000000e+01 
0.0000000e+00 5.0000000e+00 0.0000000e+00 
5.0000000e+00 1.0000000e+01 0.0000000e+00 
0.0000000e+00 0.0000000e+00 3.0000000e+00 
1.1000000e+01 0.0000000e+00 1.4000000e+01 
3.0000000e+00 6.0000000e+00 0.0000000e+00 
4.0000000e+00 7.0000000e+00 0.0000000e+00 
1.4000000e+01 5.0000000e+00 1.4000000e+01 
1.1000000e+01 0.0000000e+00 1.3000000e+01 
1.0000000e+00 5.0000000e+00 0.0000000e+00 
5.0000000e+00 9.0000000e+00 0.0000000e+00 
1.0000000e+00 0.0000000e+00 3.0000000e+00 
1.1000000e+01 0.0000000e+00 1.2000000e+01 
1.5000000e+01 1.0000000e+01 1.4000000e+01 
2.0000000e+00 5.0000000e+00 0.0000000e+00 
5.0000000e+00 8.0000000e+00 0.0000000e+00 
2.0000000e+00 0.0000000e+00 3.0000000e+00 
5.0000000e+00 0.0000000e+00 4.0000000e+00 
1.0000000e+01 0.0000000e+00 9.0000000e+00 
1.2000000e+01 1.0000000e+00 1.4000000e+01 
1.5000000e+01 9.0000000e+00 1.4000000e+01 
4.0000000e+00 6.0000000e+00 0.0000000e+00 
8.0000000e+00 0.0000000e+00 6.0000000e+00 
1.5000000e+01 8.0000000e+00 1.4000000e+01 
1.1000000e+01 0.0000000e+00 1.1000000e+01 
9.0000000e+00 0.0000000e+00 7.0000000e+00 
3.0000000e+00 5.0000000e+00 0.0000000e+00 
5.0000000e+00 7.0000000e+00 0.0000000e+00 
3.0000000e+00 0.0000000e+00 3.0000000e+00 
7.0000000e+00 0.0000000e+00 5.0000000e+00 
0.0000000e+00 4.0000000e+00 0.0000000e+00 
6.0000000e+00 1.0000000e+01 0.0000000e+00 
1.4000000e+01 4.0000000e+00 1.4000000e+01 
1.0000000e+00 4.0000000e+00 0.0000000e+00 
6.0000000e+00 9.0000000e+00 0.0000000e+00 
1.3000000e+01 2.0000000e+00 1.4000000e+01 
1.5000000e+01 7.0000000e+00 1.4000000e+01 
2.0000000e+00 4.0000000e+00 0.0000000e+00 
6.0000000e+00 8.0000000e+00 0.0000000e+00 
1.0000000e+01 0.0000000e+00 8.0000000e+00 
6.0000000e+00 0.0000000e+00 4.0000000e+00 
1.1000000e+01 0.0000000e+00 1.0000000e+01 
4.0000000e+00 5.0000000e+00 0.0000000e+00 
5.0000000e+00 6.0000000e+00 0.0000000e+00 
4.0000000e+00 0.0000000e+00 3.0000000e+00 
3.0000000e+00 4.0000000e+00 0.0000000e+00 
6.0000000e+00 7.0000000e+00 0.0000000e+00 
1.5000000e+01 6.0000000e+00 1.4000000e+01 
0.0000000e+00 0.0000000e+00 2.0000000e+00 
1.2000000e+01 0.0000000e+00 1.4000000e+01 
0.0000000e+00 3.0000000e+00 0.0000000e+00 
7.0000000e+00 1.0000000e+01 0.0000000e+00 
1.0000000e+00 0.0000000e+00 2.0000000e+00 
8.0000000e+00 0.0000000e+00 5.0000000e+00 
9.0000000e+00 0.0000000e+00 6.0000000e+00 
1.2000000e+01 0.0000000e+00 1.3000000e+01 
1.4000000e+01 3.0000000e+00 1.4000000e+01 
1.1000000e+01 0.0000000e+00 9.0000000e+00 
1.0000000e+00 3.0000000e+00 0.0000000e+00 
5.0000000e+00 5.0000000e+00 0.0000000e+00 
7.0000000e+00 9.0000000e+00 0.0000000e+00 
5.0000000e+00 0.0000000e+00 3.0000000e+00 
4.0000000e+00 4.0000000e+00 0.0000000e+00 
6.0000000e+00 6.0000000e+00 0.0000000e+00 
2.0000000e+00 0.0000000e+00 2.0000000e+00 
1.2000000e+01 0.0000000e+00 1.2000000e+01 
1.0000000e+01 0.0000000e+00 7.0000000e+00 
2.0000000e+00 3.0000000e+00 0.0000000e+00 
7.0000000e+00 8.0000000e+00 0.0000000e+00 
7.0000000e+00 0.0000000e+00 4.0000000e+00 
1.5000000e+01 5.0000000e+00 1.4000000e+01 
1.3000000e+01 1.0000000e+00 1.4000000e+01 
3.0000000e+00 0.0000000e+00 2.0000000e+00 
1.2000000e+01 0.0000000e+00 1.1000000e+01 
3.0000000e+00 3.0000000e+00 0.0000000e+00 
7.0000000e+00 7.0000000e+00 0.0000000e+00 
1.6000000e+01 1.0000000e+01 1.4000000e+01 
1.1000000e+01 0.0000000e+00 8.0000000e+00 
5.0000000e+00 4.0000000e+00 0.0000000e+00 
6.0000000e+00 5.0000000e+00 0.0000000e+00 
6.0000000e+00 0.0000000e+00 3.0000000e+00 
1.6000000e+01 9.0000000e+00 1.4000000e+01 
1.6000000e+01 8.0000000e+00 1.4000000e+01 
0.0000000e+00 2.0000000e+00 0.0000000e+00 
8.0000000e+00 1.0000000e+01 0.0000000e+00 
4.0000000e+00 0.0000000e+00 2.0000000e+00 
1.2000000e+01 0.0000000e+00 1.0000000e+01 
1.4000000e+01 2.0000000e+00 1.4000000e+01 
1.5000000e+01 4.0000000e+00 1.4000000e+01 
1.0000000e+00 2.0000000e+00 0.0000000e+00 
4.0000000e+00 3.0000000e+00 0.0000000e+00 
7.0000000e+00 6.0000000e+00 0.0000000e+00 
8.0000000e+00 9.0000000e+00 0.0000000e+00 
9.0000000e+00 0.0000000e+00 5.0000000e+00 
2.0000000e+00 2.0000000e+00 0.0000000e+00 
8.0000000e+00 8.0000000e+00 0.0000000e+00 
8.0000000e+00 0.0000000e+00 4.0000000e+00 
1.0000000e+01 0.0000000e+00 6.0000000e+00 
1.6000000e+01 7.0000000e+00 1.4000000e+01 
6.0000000e+00 4.0000000e+00 0.0000000e+00 
0.0000000e+00 0.0000000e+00 1.0000000e+00 
1.3000000e+01 0.0000000e+00 1.4000000e+01 
3.0000000e+00 2.0000000e+00 0.0000000e+00 
8.0000000e+00 7.0000000e+00 0.0000000e+00 
5.0000000e+00 0.0000000e+00 2.0000000e+00 
1.2000000e+01 0.0000000e+00 9.0000000e+00 
1.1000000e+01 0.0000000e+00 7.0000000e+00 
5.0000000e+00 3.0000000e+00 0.0000000e+00 
7.0000000e+00 5.0000000e+00 0.0000000e+00 
1.0000000e+00 0.0000000e+00 1.0000000e+00 
7.0000000e+00 0.0000000e+00 3.0000000e+00 
1.3000000e+01 0.0000000e+00 1.3000000e+01 
1.6000000e+01 6.0000000e+00 1.4000000e+01 
2.0000000e+00 0.0000000e+00 1.0000000e+00 
1.3000000e+01 0.0000000e+00 1.2000000e+01 
1.5000000e+01 3.0000000e+00 1.4000000e+01 
4.0000000e+00 2.0000000e+00 0.0000000e+00 
8.0000000e+00 6.0000000e+00 0.0000000e+00 
0.0000000e+00 1.0000000e+00 0.0000000e+00 
9.0000000e+00 1.0000000e+01 0.0000000e+00 
1.4000000e+01 1.0000000e+00 1.4000000e+01 
1.0000000e+00 1.0000000e+00 0.0000000e+00 
9.0000000e+00 9.0000000e+00 0.0000000e+00 
3.0000000e+00 0.0000000e+00 1.0000000e+00 
1.3000000e+01 0.0000000e+00 1.1000000e+01 
6.0000000e+00 0.0000000e+00 2.0000000e+00 
1.2000000e+01 0.0000000e+00 8.0000000e+00 
1.6000000e+01 5.0000000e+00 1.4000000e+01 
2.0000000e+00 1.0000000e+00 0.0000000e+00 
6.0000000e+00 3.0000000e+00 0.0000000e+00 
7.0000000e+00 4.0000000e+00 0.0000000e+00 
9.0000000e+00 8.0000000e+00 0.0000000e+00 
9.0000000e+00 0.0000000e+00 4.0000000e+00 
1.0000000e+01 0.0000000e+00 5.0000000e+00 
1.1000000e+01 0.0000000e+00 6.0000000e+00 
5.0000000e+00 2.0000000e+00 0.0000000e+00 
8.0000000e+00 5.0000000e+00 0.0000000e+00 
4.0000000e+00 0.0000000e+00 1.0000000e+00 
8.0000000e+00 0.0000000e+00 3.0000000e+00 
1.3000000e+01 0.0000000e+00 1.0000000e+01 
3.0000000e+00 1.0000000e+00 0.0000000e+00 
9.0000000e+00 7.0000000e+00 0.0000000e+00 
1.7000000e+01 1.0000000e+01 1.4000000e+01 
1.5000000e+01 2.0000000e+00 1.4000000e+01 
1.7000000e+01 9.0000000e+00 1.4000000e+01 
1.6000000e+01 4.0000000e+00 1.4000000e+01 
1.2000000e+01 0.0000000e+00 7.0000000e+00 
4.0000000e+00 1.0000000e+00 0.0000000e+00 
9.0000000e+00 6.0000000e+00 0.0000000e+00 
7.0000000e+00 0.0000000e+00 2.0000000e+00 
1.7000000e+01 8.0000000e+00 1.4000000e+01 
7.0000000e+00 3.0000000e+00 0.0000000e+00 
5.0000000e+00 0.0000000e+00 1.0000000e+00 
1.3000000e+01 0.0000000e+00 9.0000000e+00 
0.0000000e+00 0.0000000e+00 0.0000000e+00 
1.0000000e+01 1.0000000e+01 0.0000000e+00 
6.0000000e+00 2.0000000e+00 0.0000000e+00 
8.0000000e+00 4.0000000e+00 0.0000000e+00 
1.4000000e+01 0.0000000e+00 1.4000000e+01 
1.0000000e+00 0.0000000e+00 0.0000000e+00 
1.0000000e+01 9.0000000e+00 0.0000000e+00 
1.4000000e+01 0.0000000e+00 1.3000000e+01 
1.7000000e+01 7.0000000e+00 1.4000000e+01 
2.0000000e+00 0.0000000e+00 0.0000000e+00 
1.0000000e+01 8.0000000e+00 0.0000000e+00 
1.0000000e+01 0.0000000e+00 4.0000000e+00 
1.4000000e+01 0.0000000e+00 1.2000000e+01 
1.1000000e+01 0.0000000e+00 5.0000000e+00 
5.0000000e+00 1.0000000e+00 0.0000000e+00 
9.0000000e+00 5.0000000e+00 0.0000000e+00 
9.0000000e+00 0.0000000e+00 3.0000000e+00 
1.6000000e+01 3.0000000e+00 1.4000000e+01 
3.0000000e+00 0.0000000e+00 0.0000000e+00 
1.0000000e+01 7.0000000e+00 0.0000000e+00 
6.0000000e+00 0.0000000e+00 1.0000000e+00 
1.3000000e+01 0.0000000e+00 8.0000000e+00 
1.7000000e+01 6.0000000e+00 1.4000000e+01 
1.4000000e+01 0.0000000e+00 1.1000000e+01 
1.5000000e+01 1.0000000e+00 1.4000000e+01 
8.0000000e+00 0.0000000e+00 2.0000000e+00 
1.2000000e+01 0.0000000e+00 6.0000000e+00 
7.0000000e+00 2.0000000e+00 0.0000000e+00 
8.0000000e+00 3.0000000e+00 0.0000000e+00 
1.4000000e+01 0.0000000e+00 1.0000000e+01 
4.0000000e+00 0.0000000e+00 0.0000000e+00 
1.0000000e+01 6.0000000e+00 0.0000000e+00 
6.0000000e+00 1.0000000e+00 0.0000000e+00 
9.0000000e+00 4.0000000e+00 0.0000000e+00 
1.7000000e+01 5.0000000e+00 1.4000000e+01 
1.1000000e+01 1.0000000e+01 0.0000000e+00 
1.1000000e+01 9.0000000e+00 0.0000000e+00 
1.3000000e+01 0.0000000e+00 7.0000000e+00 
7.0000000e+00 0.0000000e+00 1.0000000e+00 
1.6000000e+01 2.0000000e+00 1.4000000e+01 
1.1000000e+01 8.0000000e+00 0.0000000e+00 
1.1000000e+01 0.0000000e+00 4.0000000e+00 
1.4000000e+01 0.0000000e+00 9.0000000e+00 
5.0000000e+00 0.0000000e+00 0.0000000e+00 
1.0000000e+01 5.0000000e+00 0.0000000e+00 
1.0000000e+01 0.0000000e+00 3.0000000e+00 
1.8000000e+01 1.0000000e+01 1.4000000e+01 
8.0000000e+00 2.0000000e+00 0.0000000e+00 
1.5000000e+01 0.0000000e+00 1.4000000e+01 
9.0000000e+00 0.0000000e+00 2.0000000e+00 
1.2000000e+01 0.0000000e+00 5.0000000e+00 
1.7000000e+01 4.0000000e+00 1.4000000e+01 
1.8000000e+01 9.0000000e+00 1.4000000e+01 
1.1000000e+01 7.0000000e+00 0.0000000e+00 
7.0000000e+00 1.0000000e+00 0.0000000e+00 
9.0000000e+00 3.0000000e+00 0.0000000e+00 
1.5000000e+01 0.0000000e+00 1.3000000e+01 
1.8000000e+01 8.0000000e+00 1.4000000e+01 
1.5000000e+01 0.0000000e+00 1.2000000e+01 
6.0000000e+00 0.0000000e+00 0.0000000e+00 
1.0000000e+01 4.0000000e+00 0.0000000e+00 
1.4000000e+01 0.0000000e+00 8.0000000e+00 
1.1000000e+01 6.0000000e+00 0.0000000e+00 
8.0000000e+00 0.0000000e+00 1.0000000e+00 
1.3000000e+01 0.0000000e+00 6.0000000e+00 
1.8000000e+01 7.0000000e+00 1.4000000e+01 
1.5000000e+01 0.0000000e+00 1.1000000e+01 
1.6000000e+01 1.0000000e+00 1.4000000e+01 
1.7000000e+01 3.0000000e+00 1.4000000e+01 
1.2000000e+01 1.0000000e+01 0.0000000e+00 
1.8000000e+01 6.0000000e+00 1.4000000e+01 
8.0000000e+00 1.0000000e+00 0.0000000e+00 
9.0000000e+00 2.0000000e+00 0.0000000e+00 
1.5000000e+01 0.0000000e+00 1.0000000e+01 
1.2000000e+01 9.0000000e+00 0.0000000e+00 
1.1000000e+01 5.0000000e+00 0.0000000e+00 
1.1000000e+01 0.0000000e+00 3.0000000e+00 
1.2000000e+01 8.0000000e+00 0.0000000e+00 
1.0000000e+01 0.0000000e+00 2.0000000e+00 
1.2000000e+01 0.0000000e+00 4.0000000e+00 
7.0000000e+00 0.0000000e+00 0.0000000e+00 
1.0000000e+01 3.0000000e+00 0.0000000e+00 
1.4000000e+01 0.0000000e+00 7.0000000e+00 
1.8000000e+01 5.0000000e+00 1.4000000e+01 
1.2000000e+01 7.0000000e+00 0.0000000e+00 
9.0000000e+00 0.0000000e+00 1.0000000e+00 
1.3000000e+01 0.0000000e+00 5.0000000e+00 
1.5000000e+01 0.0000000e+00 9.0000000e+00 
1.1000000e+01 4.0000000e+00 0.0000000e+00 
1.7000000e+01 2.0000000e+00 1.4000000e+01 
1.6000000e+01 0.0000000e+00 1.4000000e+01 
1.2000000e+01 6.0000000e+00 0.0000000e+00 
1.6000000e+01 0.0000000e+00 1.3000000e+01 
9.0000000e+00 1.0000000e+00 0.0000000e+00 
1.0000000e+01 2.0000000e+00 0.0000000e+00 
1.6000000e+01 0.0000000e+00 1.2000000e+01 
8.0000000e+00 0.0000000e+00 0.0000000e+00 
1.4000000e+01 0.0000000e+00 6.0000000e+00 
1.8000000e+01 4.0000000e+00 1.4000000e+01 
1.9000000e+01 1.0000000e+01 1.4000000e+01 
1.5000000e+01 0.0000000e+00 8.0000000e+00 
1.9000000e+01 9.0000000e+00 1.4000000e+01 
1.9000000e+01 8.0000000e+00 1.4000000e+01 
1.1000000e+01 0.0000000e+00 2.0000000e+00 
1.6000000e+01 0.0000000e+00 1.1000000e+01 
1.3000000e+01 1.0000000e+01 0.0000000e+00 
1.2000000e+01 5.0000000e+00 0.0000000e+00 
1.2000000e+01 0.0000000e+00 3.0000000e+00 
1.1000000e+01 3.0000000e+00 0.0000000e+00 
1.3000000e+01 9.0000000e+00 0.0000000e+00 
1.3000000e+01 8.0000000e+00 0.0000000e+00 
1.0000000e+01 0.0000000e+00 1.0000000e+00 
1.3000000e+01 0.0000000e+00 4.0000000e+00 
1.9000000e+01 7.0000000e+00 1.4000000e+01 
1.7000000e+01 1.0000000e+00 1.4000000e+01 
1.6000000e+01 0.0000000e+00 1.0000000e+01 
1.8000000e+01 3.0000000e+00 1.4000000e+01 
1.5000000e+01 0.0000000e+00 7.0000000e+00 
1.3000000e+01 7.0000000e+00 0.0000000e+00 
1.2000000e+01 4.0000000e+00 0.0000000e+00 
1.9000000e+01 6.0000000e+00 1.4000000e+01 
9.0000000e+00 0.0000000e+00 0.0000000e+00 
1.0000000e+01 1.0000000e+00 0.0000000e+00 
1.4000000e+01 0.0000000e+00 5.0000000e+00 
1.1000000e+01 2.0000000e+00 0.0000000e+00 
1.6000000e+01 0.0000000e+00 9.0000000e+00 
1.3000000e+01 6.0000000e+00 0.0000000e+00 
1.9000000e+01 5.0000000e+00 1.4000000e+01 
1.2000000e+01 0.0000000e+00 2.0000000e+00 
1.8000000e+01 2.0000000e+00 1.4000000e+01 
1.5000000e+01 0.0000000e+00 6.0000000e+00 
1.7000000e+01 0.0000000e+00 1.4000000e+01 
1.2000000e+01 3.0000000e+00 0.0000000e+00 
1.1000000e+01 0.0000000e+00 1.0000000e+00 
1.3000000e+01 5.0000000e+00 0.0000000e+00 
1.3000000e+01 0.0000000e+00 3.0000000e+00 
1.7000000e+01 0.0000000e+00 1.3000000e+01 
1.6000000e+01 0.0000000e+00 8.0000000e+00 
1.4000000e+01 1.0000000e+01 0.0000000e+00 
1.7000000e+01 0.0000000e+00 1.2000000e+01 
1.4000000e+01 9.0000000e+00 0.0000000e+00 
1.0000000e+01 0.0000000e+00 0.0000000e+00 
1.4000000e+01 8.0000000e+00 0.0000000e+00 
1.4000000e+01 0.0000000e+00 4.0000000e+00 
1.9000000e+01 4.0000000e+00 1.4000000e+01 
1.1000000e+01 1.0000000e+00 0.0000000e+00 
1.7000000e+01 0.0000000e+00 1.1000000e+01 
2.0000000e+01 1.0000000e+01 1.4000000e+01 
1.3000000e+01 4.0000000e+00 0.0000000e+00 
2.0000000e+01 9.0000000e+00 1.4000000e+01 
1.4000000e+01 7.0000000e+00 0.0000000e+00 
2.0000000e+01 8.0000000e+00 1.4000000e+01 
1.2000000e+01 2.0000000e+00 0.0000000e+00 
1.6000000e+01 0.0000000e+00 7.0000000e+00 
1.7000000e+01 0.0000000e+00 1.0000000e+01 
1.8000000e+01 1.0000000e+00 1.4000000e+01 
1.5000000e+01 0.0000000e+00 5.0000000e+00 
1.4000000e+01 6.0000000e+00 0.0000000e+00 
2.0000000e+01 7.0000000e+00 1.4000000e+01 
1.9000000e+01 3.0000000e+00 1.4000000e+01 
1.3000000e+01 0.0000000e+00 2.0000000e+00 
1.2000000e+01 0.0000000e+00 1.0000000e+00 
1.3000000e+01 3.0000000e+00 0.0000000e+00 
1.7000000e+01 0.0000000e+00 9.0000000e+00 
2.0000000e+01 6.0000000e+00 1.4000000e+01 
1.4000000e+01 0.0000000e+00 3.0000000e+00 
1.1000000e+01 0.0000000e+00 0.0000000e+00 
1.4000000e+01 5.0000000e+00 0.0000000e+00 
1.6000000e+01 0.0000000e+00 6.0000000e+00 
1.5000000e+01 1.0000000e+01 0.0000000e+00 
1.2000000e+01 1.0000000e+00 0.0000000e+00 
1.5000000e+01 9.0000000e+00 0.0000000e+00 
1.8000000e+01 0.0000000e+00 1.4000000e+01 
2.0000000e+01 5.0000000e+00 1.4000000e+01 
1.5000000e+01 8.0000000e+00 0.0000000e+00 
1.5000000e+01 0.0000000e+00 4.0000000e+00 
1.7000000e+01 0.0000000e+00 8.0000000e+00 
1.9000000e+01 2.0000000e+00 1.4000000e+01 
1.8000000e+01 0.0000000e+00 1.3000000e+01 
1.4000000e+01 4.0000000e+00 0.0000000e+00 
1.8000000e+01 0.0000000e+00 1.2000000e+01 
1.3000000e+01 2.0000000e+00 0.0000000e+00 
1.5000000e+01 7.0000000e+00 0.0000000e+00 
1.8000000e+01 0.0000000e+00 1.1000000e+01 
2.0000000e+01 4.0000000e+00 1.4000000e+01 
1.6000000e+01 0.0000000e+00 5.0000000e+00 
1.5000000e+01 6.0000000e+00 0.0000000e+00 
1.7000000e+01 0.0000000e+00 7.0000000e+00 
1.3000000e+01 0.0000000e+00 1.0000000e+00 
1.4000000e+01 0.0000000e+00 2.0000000e+00 
1.2000000e+01 0.0000000e+00 0.0000000e+00 
1.8000000e+01 0.0000000e+00 1.0000000e+01 
2.1000000e+01 1.0000000e+01 1.4000000e+01 
1.4000000e+01 3.0000000e+00 0.0000000e+00 
1.9000000e+01 1.0000000e+00 1.4000000e+01 
2.1000000e+01 9.0000000e+00 1.4000000e+01 
2.1000000e+01 8.0000000e+00 1.4000000e+01 
1.3000000e+01 1.0000000e+00 0.0000000e+00 
1.5000000e+01 5.0000000e+00 0.0000000e+00 
1.5000000e+01 0.0000000e+00 3.0000000e+00 
2.0000000e+01 3.0000000e+00 1.4000000e+01 
1.8000000e+01 0.0000000e+00 9.0000000e+00 
2.1000000e+01 7.0000000e+00 1.4000000e+01 
1.6000000e+01 1.0000000e+01 0.0000000e+00 
1.6000000e+01 9.0000000e+00 0.0000000e+00 
1.7000000e+01 0.0000000e+00 6.0000000e+00 
1.6000000e+01 0.0000000e+00 4.0000000e+00 
1.4000000e+01 2.0000000e+00 0.0000000e+00 
1.6000000e+01 8.0000000e+00 0.0000000e+00 
1.5000000e+01 4.0000000e+00 0.0000000e+00 
2.1000000e+01 6.0000000e+00 1.4000000e+01 
1.8000000e+01 0.0000000e+00 8.0000000e+00 
1.6000000e+01 7.0000000e+00 0.0000000e+00 
1.9000000e+01 0.0000000e+00 1.4000000e+01 
1.9000000e+01 0.0000000e+00 1.3000000e+01 
2.0000000e+01 2.0000000e+00 1.4000000e+01 
1.9000000e+01 0.0000000e+00 1.2000000e+01 
1.3000000e+01 0.0000000e+00 0.0000000e+00 
1.4000000e+01 0.0000000e+00 1.0000000e+00 
2.1000000e+01 5.0000000e+00 1.4000000e+01 
1.6000000e+01 6.0000000e+00 0.0000000e+00 
1.5000000e+01 0.0000000e+00 2.0000000e+00 
1.9000000e+01 0.0000000e+00 1.1000000e+01 
1.7000000e+01 0.0000000e+00 5.0000000e+00 
1.5000000e+01 3.0000000e+00 0.0000000e+00 
1.8000000e+01 0.0000000e+00 7.0000000e+00 
1.4000000e+01 1.0000000e+00 0.0000000e+00 
1.9000000e+01 0.0000000e+00 1.0000000e+01 
1.6000000e+01 0.0000000e+00 3.0000000e+00 
1.6000000e+01 5.0000000e+00 0.0000000e+00 
2.1000000e+01 4.0000000e+00 1.4000000e+01 
2.0000000e+01 1.0000000e+00 1.4000000e+01 
2.2000000e+01 1.0000000e+01 1.4000000e+01 
2.2000000e+01 9.0000000e+00 1.4000000e+01 
1.7000000e+01 1.0000000e+01 0.0000000e+00 
1.5000000e+01 2.0000000e+00 0.0000000e+00 
1.9000000e+01 0.0000000e+00 9.0000000e+00 
1.7000000e+01 9.0000000e+00 0.0000000e+00 
2.2000000e+01 8.0000000e+00 1.4000000e+01 
1.8000000e+01 0.0000000e+00 6.0000000e+00 
1.6000000e+01 4.0000000e+00 0.0000000e+00 
1.7000000e+01 8.0000000e+00 0.0000000e+00 
1.7000000e+01 0.0000000e+00 4.0000000e+00 
2.1000000e+01 3.0000000e+00 1.4000000e+01 
1.4000000e+01 0.0000000e+00 0.0000000e+00 
2.2000000e+01 7.0000000e+00 1.4000000e+01 
1.7000000e+01 7.0000000e+00 0.0000000e+00 
1.5000000e+01 0.0000000e+00 1.0000000e+00 
1.9000000e+01 0.0000000e+00 8.0000000e+00 
2.2000000e+01 6.0000000e+00 1.4000000e+01 
1.6000000e+01 0.0000000e+00 2.0000000e+00 
2.0000000e+01 0.0000000e+00 1.4000000e+01 
1.6000000e+01 3.0000000e+00 0.0000000e+00 
1.7000000e+01 6.0000000e+00 0.0000000e+00 
2.0000000e+01 0.0000000e+00 1.3000000e+01 
1.5000000e+01 1.0000000e+00 0.0000000e+00 
2.0000000e+01 0.0000000e+00 1.2000000e+01 
1.8000000e+01 0.0000000e+00 5.0000000e+00 
2.1000000e+01 2.0000000e+00 1.4000000e+01 
2.2000000e+01 5.0000000e+00 1.4000000e+01 
2.0000000e+01 0.0000000e+00 1.1000000e+01 
1.9000000e+01 0.0000000e+00 7.0000000e+00 
1.7000000e+01 5.0000000e+00 0.0000000e+00 
1.7000000e+01 0.0000000e+00 3.0000000e+00 
1.6000000e+01 2.0000000e+00 0.0000000e+00 
2.0000000e+01 0.0000000e+00 1.0000000e+01 
2.2000000e+01 4.0000000e+00 1.4000000e+01 
1.8000000e+01 1.0000000e+01 0.0000000e+00 
1.5000000e+01 0.0000000e+00 0.0000000e+00 
1.7000000e+01 4.0000000e+00 0.0000000e+00 
1.8000000e+01 9.0000000e+00 0.0000000e+00 
2.1000000e+01 1.0000000e+00 1.4000000e+01 
1.8000000e+01 8.0000000e+00 0.0000000e+00 
1.8000000e+01 0.0000000e+00 4.0000000e+00 
1.9000000e+01 0.0000000e+00 6.0000000e+00 
1.6000000e+01 0.0000000e+00 1.0000000e+00 
2.0000000e+01 0.0000000e+00 9.0000000e+00 
2.3000000e+01 1.0000000e+01 1.4000000e+01 
1.8000000e+01 7.0000000e+00 0.0000000e+00 
2.3000000e+01 9.0000000e+00 1.4000000e+01 
2.2000000e+01 3.0000000e+00 1.4000000e+01 
1.6000000e+01 1.0000000e+00 0.0000000e+00 
1.7000000e+01 0.0000000e+00 2.0000000e+00 
2.3000000e+01 8.0000000e+00 1.4000000e+01 
1.7000000e+01 3.0000000e+00 0.0000000e+00 
2.0000000e+01 0.0000000e+00 8.0000000e+00 
1.8000000e+01 6.0000000e+00 0.0000000e+00 
2.3000000e+01 7.0000000e+00 1.4000000e+01 
2.1000000e+01 0.0000000e+00 1.4000000e+01 
1.9000000e+01 0.0000000e+00 5.0000000e+00 
2.1000000e+01 0.0000000e+00 1.3000000e+01 
2.3000000e+01 6.0000000e+00 1.4000000e+01 
1.8000000e+01 5.0000000e+00 0.0000000e+00 
1.8000000e+01 0.0000000e+00 3.0000000e+00 
2.1000000e+01 0.0000000e+00 1.2000000e+01 
2.2000000e+01 2.0000000e+00 1.4000000e+01 
2.0000000e+01 0.0000000e+00 7.0000000e+00 
1.7000000e+01 2.0000000e+00 0.0000000e+00 
2.1000000e+01 0.0000000e+00 1.1000000e+01 
1.6000000e+01 0.0000000e+00 0.0000000e+00 
2.3000000e+01 5.0000000e+00 1.4000000e+01 
1.8000000e+01 4.0000000e+00 0.0000000e+00 
1.9000000e+01 1.0000000e+01 0.0000000e+00 
2.1000000e+01 0.0000000e+00 1.0000000e+01 
1.9000000e+01 9.0000000e+00 0.0000000e+00 
1.7000000e+01 0.0000000e+00 1.0000000e+00 
1.9000000e+01 8.0000000e+00 0.0000000e+00 
1.9000000e+01 0.0000000e+00 4.0000000e+00 
2.0000000e+01 0.0000000e+00 6.0000000e+00 
2.2000000e+01 1.0000000e+00 1.4000000e+01 
2.3000000e+01 4.0000000e+00 1.4000000e+01 
1.9000000e+01 7.0000000e+00 0.0000000e+00 
1.7000000e+01 1.0000000e+00 0.0000000e+00 
2.1000000e+01 0.0000000e+00 9.0000000e+00 
1.8000000e+01 0.0000000e+00 2.0000000e+00 
1.8000000e+01 3.0000000e+00 0.0000000e+00 
1.9000000e+01 6.0000000e+00 0.0000000e+00 
2.4000000e+01 1.0000000e+01 1.4000000e+01 
2.4000000e+01 9.0000000e+00 1.4000000e+01 
2.1000000e+01 0.0000000e+00 8.0000000e+00 
2.3000000e+01 3.0000000e+00 1.4000000e+01 
2.4000000e+01 8.0000000e+00 1.4000000e+01 
2.0000000e+01 0.0000000e+00 5.0000000e+00 
1.9000000e+01 0.0000000e+00 3.0000000e+00 
1.9000000e+01 5.0000000e+00 0.0000000e+00 
2.2000000e+01 0.0000000e+00 1.4000000e+01 
1.8000000e+01 2.0000000e+00 0.0000000e+00 
2.2000000e+01 0.0000000e+00 1.3000000e+01 
1.7000000e+01 0.0000000e+00 0.0000000e+00 
2.4000000e+01 7.0000000e+00 1.4000000e+01 
2.2000000e+01 0.0000000e+00 1.2000000e+01 
2.1000000e+01 0.0000000e+00 7.0000000e+00 
2.4000000e+01 6.0000000e+00 1.4000000e+01 
1.9000000e+01 4.0000000e+00 0.0000000e+00 
2.2000000e+01 0.0000000e+00 1.1000000e+01 
2.3000000e+01 2.0000000e+00 1.4000000e+01 
1.8000000e+01 0.0000000e+00 1.0000000e+00 
2.0000000e+01 1.0000000e+01 0.0000000e+00 
2.0000000e+01 9.0000000e+00 0.0000000e+00 
2.0000000e+01 0.0000000e+00 4.0000000e+00 
2.0000000e+01 8.0000000e+00 0.0000000e+00 
2.2000000e+01 0.0000000e+00 1.0000000e+01 
2.4000000e+01 5.0000000e+00 1.4000000e+01 
1.8000000e+01 1.0000000e+00 0.0000000e+00 
1.9000000e+01 0.0000000e+00 2.0000000e+00 
2.0000000e+01 7.0000000e+00 0.0000000e+00 
2.1000000e+01 0.0000000e+00 6.0000000e+00 
1.9000000e+01 3.0000000e+00 0.0000000e+00 
2.2000000e+01 0.0000000e+00 9.0000000e+00 
2.3000000e+01 1.0000000e+00 1.4000000e+01 
2.0000000e+01 6.0000000e+00 0.0000000e+00 
2.4000000e+01 4.0000000e+00 1.4000000e+01 
2.2000000e+01 0.0000000e+00 8.0000000e+00 
1.8000000e+01 0.0000000e+00 0.0000000e+00 
1.9000000e+01 2.0000000e+00 0.0000000e+00 
2.0000000e+01 5.0000000e+00 0.0000000e+00 
2.0000000e+01 0.0000000e+00 3.0000000e+00 
2.1000000e+01 0.0000000e+00 5.0000000e+00 
2.5000000e+01 1.0000000e+01 1.4000000e+01 
2.4000000e+01 3.0000000e+00 1.4000000e+01 
2.5000000e+01 9.0000000e+00 1.4000000e+01 
2.3000000e+01 0.0000000e+00 1.4000000e+01 
2.5000000e+01 8.0000000e+00 1.4000000e+01 
1.9000000e+01 0.0000000e+00 1.0000000e+00 
2.3000000e+01 0.0000000e+00 1.3000000e+01 
2.0000000e+01 4.0000000e+00 0.0000000e+00 
2.2000000e+01 0.0000000e+00 7.0000000e+00 
2.3000000e+01 0.0000000e+00 1.2000000e+01 
2.5000000e+01 7.0000000e+00 1.4000000e+01 
2.1000000e+01 1.0000000e+01 0.0000000e+00 
1.9000000e+01 1.0000000e+00 0.0000000e+00 
2.3000000e+01 0.0000000e+00 1.1000000e+01 
2.1000000e+01 9.0000000e+00 0.0000000e+00 
2.4000000e+01 2.0000000e+00 1.4000000e+01 
2.5000000e+01 6.0000000e+00 1.4000000e+01 
2.1000000e+01 8.0000000e+00 0.0000000e+00 
2.1000000e+01 0.0000000e+00 4.0000000e+00 
2.0000000e+01 0.0000000e+00 2.0000000e+00 
2.0000000e+01 3.0000000e+00 0.0000000e+00 
2.3000000e+01 0.0000000e+00 1.0000000e+01 
2.1000000e+01 7.0000000e+00 0.0000000e+00 
2.2000000e+01 0.0000000e+00 6.0000000e+00 
2.5000000e+01 5.0000000e+00 1.4000000e+01 
2.1000000e+01 6.0000000e+00 0.0000000e+00 
2.3000000e+01 0.0000000e+00 9.0000000e+00 
2.4000000e+01 1.0000000e+00 1.4000000e+01 
1.9000000e+01 0.0000000e+00 0.0000000e+00 
2.0000000e+01 2.0000000e+00 0.0000000e+00 
2.5000000e+01 4.0000000e+00 1.4000000e+01 
2.1000000e+01 5.0000000e+00 0.0000000e+00 
2.1000000e+01 0.0000000e+00 3.0000000e+00 
2.3000000e+01 0.0000000e+00 8.0000000e+00 
2.2000000e+01 0.0000000e+00 5.0000000e+00 
2.0000000e+01 0.0000000e+00 1.0000000e+00 
2.1000000e+01 4.0000000e+00 0.0000000e+00 
2.5000000e+01 3.0000000e+00 1.4000000e+01 
2.4000000e+01 0.0000000e+00 1.4000000e+01 
2.6000000e+01 1.0000000e+01 1.4000000e+01 
2.4000000e+01 0.0000000e+00 1.3000000e+01 
2.0000000e+01 1.0000000e+00 0.0000000e+00 
2.6000000e+01 9.0000000e+00 1.4000000e+01 
2.3000000e+01 0.0000000e+00 7.0000000e+00 
2.2000000e+01 1.0000000e+01 0.0000000e+00 
2.4000000e+01 0.0000000e+00 1.2000000e+01 
2.6000000e+01 8.0000000e+00 1.4000000e+01 
2.2000000e+01 9.0000000e+00 0.0000000e+00 
2.2000000e+01 8.0000000e+00 0.0000000e+00 
2.2000000e+01 0.0000000e+00 4.0000000e+00 
2.4000000e+01 0.0000000e+00 1.1000000e+01 
2.1000000e+01 0.0000000e+00 2.0000000e+00 
2.6000000e+01 7.0000000e+00 1.4000000e+01 
2.1000000e+01 3.0000000e+00 0.0000000e+00 
2.2000000e+01 7.0000000e+00 0.0000000e+00 
2.5000000e+01 2.0000000e+00 1.4000000e+01 
2.6000000e+01 6.0000000e+00 1.4000000e+01 
2.4000000e+01 0.0000000e+00 1.0000000e+01 
2.3000000e+01 0.0000000e+00 6.0000000e+00 
2.2000000e+01 6.0000000e+00 0.0000000e+00 
2.0000000e+01 0.0000000e+00 0.0000000e+00 
2.1000000e+01 2.0000000e+00 0.0000000e+00 
2.6000000e+01 5.0000000e+00 1.4000000e+01 
2.4000000e+01 0.0000000e+00 9.0000000e+00 
2.2000000e+01 5.0000000e+00 0.0000000e+00 
2.2000000e+01 0.0000000e+00 3.0000000e+00 
2.5000000e+01 1.0000000e+00 1.4000000e+01 
2.3000000e+01 0.0000000e+00 5.0000000e+00 
2.1000000e+01 0.0000000e+00 1.0000000e+00 
2.4000000e+01 0.0000000e+00 8.0000000e+00 
2.6000000e+01 4.0000000e+00 1.4000000e+01 
2.2000000e+01 4.0000000e+00 0.0000000e+00 
2.1000000e+01 1.0000000e+00 0.0000000e+00 
2.3000000e+01 1.0000000e+01 0.0000000e+00 
2.4000000e+01 0.0000000e+00 7.0000000e+00 
2.5000000e+01 0.0000000e+00 1.4000000e+01 
2.6000000e+01 3.0000000e+00 1.4000000e+01 
2.3000000e+01 9.0000000e+00 0.0000000e+00 
2.5000000e+01 0.0000000e+00 1.3000000e+01 
2.2000000e+01 0.0000000e+00 2.0000000e+00 
2.2000000e+01 3.0000000e+00 0.0000000e+00 
2.7000000e+01 1.0000000e+01 1.4000000e+01 
2.3000000e+01 0.0000000e+00 4.0000000e+00 
2.5000000e+01 0.0000000e+00 1.2000000e+01 
2.3000000e+01 8.0000000e+00 0.0000000e+00 
2.7000000e+01 9.0000000e+00 1.4000000e+01 
2.7000000e+01 8.0000000e+00 1.4000000e+01 
2.3000000e+01 7.0000000e+00 0.0000000e+00 
2.5000000e+01 0.0000000e+00 1.1000000e+01 
2.1000000e+01 0.0000000e+00 0.0000000e+00 
2.7000000e+01 7.0000000e+00 1.4000000e+01 
2.4000000e+01 0.0000000e+00 6.0000000e+00 
2.6000000e+01 2.0000000e+00 1.4000000e+01 
2.3000000e+01 6.0000000e+00 0.0000000e+00 
2.5000000e+01 0.0000000e+00 1.0000000e+01 
2.2000000e+01 2.0000000e+00 0.0000000e+00 
2.7000000e+01 6.0000000e+00 1.4000000e+01 
2.3000000e+01 5.0000000e+00 0.0000000e+00 
2.3000000e+01 0.0000000e+00 3.0000000e+00 
2.5000000e+01 0.0000000e+00 9.0000000e+00 
2.2000000e+01 0.0000000e+00 1.0000000e+00 
2.7000000e+01 5.0000000e+00 1.4000000e+01 
2.4000000e+01 0.0000000e+00 5.0000000e+00 
2.6000000e+01 1.0000000e+00 1.4000000e+01 
2.5000000e+01 0.0000000e+00 8.0000000e+00 
2.2000000e+01 1.0000000e+00 0.0000000e+00 
2.3000000e+01 4.0000000e+00 0.0000000e+00 
2.7000000e+01 4.0000000e+00 1.4000000e+01 
2.4000000e+01 1.0000000e+01 0.0000000e+00 
2.4000000e+01 9.0000000e+00 0.0000000e+00 
2.3000000e+01 0.0000000e+00 2.0000000e+00 
2.5000000e+01 0.0000000e+00 7.0000000e+00 
2.3000000e+01 3.0000000e+00 0.0000000e+00 
2.6000000e+01 0.0000000e+00 1.4000000e+01 
2.4000000e+01 8.0000000e+00 0.0000000e+00 
2.4000000e+01 0.0000000e+00 4.0000000e+00 
2.6000000e+01 0.0000000e+00 1.3000000e+01 
2.7000000e+01 3.0000000e+00 1.4000000e+01 
2.2000000e+01 0.0000000e+00 0.0000000e+00 
2.6000000e+01 0.0000000e+00 1.2000000e+01 
2.4000000e+01 7.0000000e+00 0.0000000e+00 
2.8000000e+01 1.0000000e+01 1.4000000e+01 
2.6000000e+01 0.0000000e+00 1.1000000e+01 
2.8000000e+01 9.0000000e+00 1.4000000e+01 
2.4000000e+01 6.0000000e+00 0.0000000e+00 
2.8000000e+01 8.0000000e+00 1.4000000e+01 
2.3000000e+01 2.0000000e+00 0.0000000e+00 
2.5000000e+01 0.0000000e+00 6.0000000e+00 
2.6000000e+01 0.0000000e+00 1.0000000e+01 
2.7000000e+01 2.0000000e+00 1.4000000e+01 
2.8000000e+01 7.0000000e+00 1.4000000e+01 
2.4000000e+01 5.0000000e+00 0.0000000e+00 
2.4000000e+01 0.0000000e+00 3.0000000e+00 
2.3000000e+01 0.0000000e+00 1.0000000e+00 
2.8000000e+01 6.0000000e+00 1.4000000e+01 
2.6000000e+01 0.0000000e+00 9.0000000e+00 
2.3000000e+01 1.0000000e+00 0.0000000e+00 
2.5000000e+01 0.0000000e+00 5.0000000e+00 
2.4000000e+01 4.0000000e+00 0.0000000e+00 
2.8000000e+01 5.0000000e+00 1.4000000e+01 
2.7000000e+01 1.0000000e+00 1.4000000e+01 
2.6000000e+01 0.0000000e+00 8.0000000e+00 
2.4000000e+01 0.0000000e+00 2.0000000e+00 
2.8000000e+01 4.0000000e+00 1.4000000e+01 
2.5000000e+01 1.0000000e+01 0.0000000e+00 
2.4000000e+01 3.0000000e+00 0.0000000e+00 
2.5000000e+01 9.0000000e+00 0.0000000e+00 
2.5000000e+01 0.0000000e+00 4.0000000e+00 
2.3000000e+01 0.0000000e+00 0.0000000e+00 
2.6000000e+01 0.0000000e+00 7.0000000e+00 
2.5000000e+01 8.0000000e+00 0.0000000e+00 
2.7000000e+01 0.0000000e+00 1.4000000e+01 
2.5000000e+01 7.0000000e+00 0.0000000e+00 
2.7000000e+01 0.0000000e+00 1.3000000e+01 
2.7000000e+01 0.0000000e+00 1.2000000e+01 
2.8000000e+01 3.0000000e+00 1.4000000e+01 
2.4000000e+01 2.0000000e+00 0.0000000e+00 
2.5000000e+01 6.0000000e+00 0.0000000e+00 
2.7000000e+01 0.0000000e+00 1.1000000e+01 
2.6000000e+01 0.0000000e+00 6.0000000e+00 
2.9000000e+01 1.0000000e+01 1.4000000e+01 
2.9000000e+01 9.0000000e+00 1.4000000e+01 
2.9000000e+01 8.0000000e+00 1.4000000e+01 
2.4000000e+01 0.0000000e+00 1.0000000e+00 
2.7000000e+01 0.0000000e+00 1.0000000e+01 
2.5000000e+01 5.0000000e+00 0.0000000e+00 
2.5000000e+01 0.0000000e+00 3.0000000e+00 
2.8000000e+01 2.0000000e+00 1.4000000e+01 
2.9000000e+01 7.0000000e+00 1.4000000e+01 
2.4000000e+01 1.0000000e+00 0.0000000e+00 
2.7000000e+01 0.0000000e+00 9.0000000e+00 
2.9000000e+01 6.0000000e+00 1.4000000e+01 
2.5000000e+01 4.0000000e+00 0.0000000e+00 
2.6000000e+01 0.0000000e+00 5.0000000e+00 
2.7000000e+01 0.0000000e+00 8.0000000e+00 
2.8000000e+01 1.0000000e+00 1.4000000e+01 
2.9000000e+01 5.0000000e+00 1.4000000e+01 
2.5000000e+01 0.0000000e+00 2.0000000e+00 
2.5000000e+01 3.0000000e+00 0.0000000e+00 
2.4000000e+01 0.0000000e+00 0.0000000e+00 
2.6000000e+01 1.0000000e+01 0.0000000e+00 
2.6000000e+01 9.0000000e+00 0.0000000e+00 
2.6000000e+01 8.0000000e+00 0.0000000e+00 
2.6000000e+01 0.0000000e+00 4.0000000e+00 
2.9000000e+01 4.0000000e+00 1.4000000e+01 
2.7000000e+01 0.0000000e+00 7.0000000e+00 
2.6000000e+01 7.0000000e+00 0.0000000e+00 
2.8000000e+01 0.0000000e+00 1.4000000e+01 
2.5000000e+01 2.0000000e+00 0.0000000e+00 
2.8000000e+01 0.0000000e+00 1.3000000e+01 
2.6000000e+01 6.0000000e+00 0.0000000e+00 
2.8000000e+01 0.0000000e+00 1.2000000e+01 
2.9000000e+01 3.0000000e+00 1.4000000e+01 
2.7000000e+01 0.0000000e+00 6.0000000e+00 
2.8000000e+01 0.0000000e+00 1.1000000e+01 
2.5000000e+01 0.0000000e+00 1.0000000e+00 
2.6000000e+01 5.0000000e+00 0.0000000e+00 
2.6000000e+01 0.0000000e+00 3.0000000e+00 
2.8000000e+01 0.0000000e+00 1.0000000e+01 
3.0000000e+01 1.0000000e+01 1.4000000e+01 
3.0000000e+01 9.0000000e+00 1.4000000e+01 
2.5000000e+01 1.0000000e+00 0.0000000e+00 
3.0000000e+01 8.0000000e+00 1.4000000e+01 
2.9000000e+01 2.0000000e+00 1.4000000e+01 
2.6000000e+01 4.0000000e+00 0.0000000e+00 
2.8000000e+01 0.0000000e+00 9.0000000e+00 
3.0000000e+01 7.0000000e+00 1.4000000e+01 
2.7000000e+01 0.0000000e+00 5.0000000e+00 
3.0000000e+01 6.0000000e+00 1.4000000e+01 
2.6000000e+01 0.0000000e+00 2.0000000e+00 
2.8000000e+01 0.0000000e+00 8.0000000e+00 
2.5000000e+01 0.0000000e+00 0.0000000e+00 
2.6000000e+01 3.0000000e+00 0.0000000e+00 
2.9000000e+01 1.0000000e+00 1.4000000e+01 
2.7000000e+01 1.0000000e+01 0.0000000e+00 
3.0000000e+01 5.0000000e+00 1.4000000e+01 
2.7000000e+01 9.0000000e+00 0.0000000e+00 
2.7000000e+01 8.0000000e+00 0.0000000e+00 
2.7000000e+01 0.0000000e+00 4.0000000e+00 
2.8000000e+01 0.0000000e+00 7.0000000e+00 
2.7000000e+01 7.0000000e+00 0.0000000e+00 
3.0000000e+01 4.0000000e+00 1.4000000e+01 
2.6000000e+01 2.0000000e+00 0.0000000e+00 
2.9000000e+01 0.0000000e+00 1.4000000e+01 
2.7000000e+01 6.0000000e+00 0.0000000e+00 
2.9000000e+01 0.0000000e+00 1.3000000e+01 
2.9000000e+01 0.0000000e+00 1.2000000e+01 
2.6000000e+01 0.0000000e+00 1.0000000e+00 
2.8000000e+01 0.0000000e+00 6.0000000e+00 
3.0000000e+01 3.0000000e+00 1.4000000e+01 
2.9000000e+01 0.0000000e+00 1.1000000e+01 
2.7000000e+01 5.0000000e+00 0.0000000e+00 
2.7000000e+01 0.0000000e+00 3.0000000e+00 
2.6000000e+01 1.0000000e+00 0.0000000e+00 
2.9000000e+01 0.0000000e+00 1.0000000e+01 
3.1000000e+01 1.0000000e+01 1.4000000e+01 
2.7000000e+01 4.0000000e+00 0.0000000e+00 
3.1000000e+01 9.0000000e+00 1.4000000e+01 
3.0000000e+01 2.0000000e+00 1.4000000e+01 
3.1000000e+01 8.0000000e+00 1.4000000e+01 
2.8000000e+01 0.0000000e+00 5.0000000e+00 
2.9000000e+01 0.0000000e+00 9.0000000e+00 
3.1000000e+01 7.0000000e+00 1.4000000e+01 
2.6000000e+01 0.0000000e+00 0.0000000e+00 
2.7000000e+01 0.0000000e+00 2.0000000e+00 
2.7000000e+01 3.0000000e+00 0.0000000e+00 
2.9000000e+01 0.0000000e+00 8.0000000e+00 
3.1000000e+01 6.0000000e+00 1.4000000e+01 
2.8000000e+01 1.0000000e+01 0.0000000e+00 
3.0000000e+01 1.0000000e+00 1.4000000e+01 
2.8000000e+01 9.0000000e+00 0.0000000e+00 
2.8000000e+01 8.0000000e+00 0.0000000e+00 
2.8000000e+01 0.0000000e+00 4.0000000e+00 
3.1000000e+01 5.0000000e+00 1.4000000e+01 
2.7000000e+01 2.0000000e+00 0.0000000e+00 
2.8000000e+01 7.0000000e+00 0.0000000e+00 
2.9000000e+01 0.0000000e+00 7.0000000e+00 
2.8000000e+01 6.0000000e+00 0.0000000e+00 
3.1000000e+01 4.0000000e+00 1.4000000e+01 
2.7000000e+01 0.0000000e+00 1.0000000e+00 
3.0000000e+01 0.0000000e+00 1.4000000e+01 
3.0000000e+01 0.0000000e+00 1.3000000e+01 
3.0000000e+01 0.0000000e+00 1.2000000e+01 
2.9000000e+01 0.0000000e+00 6.0000000e+00 
2.8000000e+01 0.0000000e+00 3.0000000e+00 
2.8000000e+01 5.0000000e+00 0.0000000e+00 
2.7000000e+01 1.0000000e+00 0.0000000e+00 
3.0000000e+01 0.0000000e+00 1.1000000e+01 
3.1000000e+01 3.0000000e+00 1.4000000e+01 
2.8000000e+01 4.0000000e+00 0.0000000e+00 
3.0000000e+01 0.0000000e+00 1.0000000e+01 
2.9000000e+01 0.0000000e+00 5.0000000e+00 
3.2000000e+01 1.0000000e+01 1.4000000e+01 
3.0000000e+01 0.0000000e+00 9.0000000e+00 
2.7000000e+01 0.0000000e+00 0.0000000e+00 
3.1000000e+01 2.0000000e+00 1.4000000e+01 
3.2000000e+01 9.0000000e+00 1.4000000e+01 
2.8000000e+01 0.0000000e+00 2.0000000e+00 
3.2000000e+01 8.0000000e+00 1.4000000e+01 
2.8000000e+01 3.0000000e+00 0.0000000e+00 
3.2000000e+01 7.0000000e+00 1.4000000e+01 
3.0000000e+01 0.0000000e+00 8.0000000e+00 
2.9000000e+01 1.0000000e+01 0.0000000e+00 
2.9000000e+01 9.0000000e+00 0.0000000e+00 
3.2000000e+01 6.0000000e+00 1.4000000e+01 
2.9000000e+01 0.0000000e+00 4.0000000e+00 
2.9000000e+01 8.0000000e+00 0.0000000e+00 
3.1000000e+01 1.0000000e+00 1.4000000e+01 
2.8000000e+01 2.0000000e+00 0.0000000e+00 
2.9000000e+01 7.0000000e+00 0.0000000e+00 
3.0000000e+01 0.0000000e+00 7.0000000e+00 
3.2000000e+01 5.0000000e+00 1.4000000e+01 
2.9000000e+01 6.0000000e+00 0.0000000e+00 
2.8000000e+01 0.0000000e+00 1.0000000e+00 
3.2000000e+01 4.0000000e+00 1.4000000e+01 
3.1000000e+01 0.0000000e+00 1.4000000e+01 
2.8000000e+01 1.0000000e+00 0.0000000e+00 
2.9000000e+01 5.0000000e+00 0.0000000e+00 
2.9000000e+01 0.0000000e+00 3.0000000e+00 
3.1000000e+01 0.0000000e+00 1.3000000e+01 
3.0000000e+01 0.0000000e+00 6.0000000e+00 
3.1000000e+01 0.0000000e+00 1.2000000e+01 
3.1000000e+01 0.0000000e+00 1.1000000e+01 
2.9000000e+01 4.0000000e+00 0.0000000e+00 
3.2000000e+01 3.0000000e+00 1.4000000e+01 
3.1000000e+01 0.0000000e+00 1.0000000e+01 
2.8000000e+01 0.0000000e+00 0.0000000e+00 
3.0000000e+01 0.0000000e+00 5.0000000e+00 
2.9000000e+01 0.0000000e+00 2.0000000e+00 
2.9000000e+01 3.0000000e+00 0.0000000e+00 
3.1000000e+01 0.0000000e+00 9.0000000e+00 
3.2000000e+01 2.0000000e+00 1.4000000e+01 
3.3000000e+01 1.0000000e+01 1.4000000e+01 
3.3000000e+01 9.0000000e+00 1.4000000e+01 
3.3000000e+01 8.0000000e+00 1.4000000e+01 
3.0000000e+01 1.0000000e+01 0.0000000e+00 
3.0000000e+01 9.0000000e+00 0.0000000e+00 
3.1000000e+01 0.0000000e+00 8.0000000e+00 
3.3000000e+01 7.0000000e+00 1.4000000e+01 
3.0000000e+01 0.0000000e+00 4.0000000e+00 
3.0000000e+01 8.0000000e+00 0.0000000e+00 
2.9000000e+01 2.0000000e+00 0.0000000e+00 
3.0000000e+01 7.0000000e+00 0.0000000e+00 
3.3000000e+01 6.0000000e+00 1.4000000e+01 
3.2000000e+01 1.0000000e+00 1.4000000e+01 
2.9000000e+01 0.0000000e+00 1.0000000e+00 
3.1000000e+01 0.0000000e+00 7.0000000e+00 
3.0000000e+01 6.0000000e+00 0.0000000e+00 
3.3000000e+01 5.0000000e+00 1.4000000e+01 
2.9000000e+01 1.0000000e+00 0.0000000e+00 
3.0000000e+01 5.0000000e+00 0.0000000e+00 
3.0000000e+01 0.0000000e+00 3.0000000e+00 
3.2000000e+01 0.0000000e+00 1.4000000e+01 
3.1000000e+01 0.0000000e+00 6.0000000e+00 
3.3000000e+01 4.0000000e+00 1.4000000e+01 
3.2000000e+01 0.0000000e+00 1.3000000e+01 
3.2000000e+01 0.0000000e+00 1.2000000e+01 
3.0000000e+01 4.0000000e+00 0.0000000e+00 
3.2000000e+01 0.0000000e+00 1.1000000e+01 
2.9000000e+01 0.0000000e+00 0.0000000e+00 
3.3000000e+01 3.0000000e+00 1.4000000e+01 
3.2000000e+01 0.0000000e+00 1.0000000e+01 
3.1000000e+01 0.0000000e+00 5.0000000e+00 
3.0000000e+01 0.0000000e+00 2.0000000e+00 
3.0000000e+01 3.0000000e+00 0.0000000e+00 
3.2000000e+01 0.0000000e+00 9.0000000e+00 
3.3000000e+01 2.0000000e+00 1.4000000e+01 
3.4000000e+01 1.0000000e+01 1.4000000e+01 
3.1000000e+01 1.0000000e+01 0.0000000e+00 
3.4000000e+01 9.0000000e+00 1.4000000e+01 
3.1000000e+01 9.0000000e+00 0.0000000e+00 
3.2000000e+01 0.0000000e+00 8.0000000e+00 
3.0000000e+01 2.0000000e+00 0.0000000e+00 
3.4000000e+01 8.0000000e+00 1.4000000e+01 
3.1000000e+01 8.0000000e+00 0.0000000e+00 
3.1000000e+01 0.0000000e+00 4.0000000e+00 
3.4000000e+01 7.0000000e+00 1.4000000e+01 
3.1000000e+01 7.0000000e+00 0.0000000e+00 
3.0000000e+01 0.0000000e+00 1.0000000e+00 
3.3000000e+01 1.0000000e+00 1.4000000e+01 
3.4000000e+01 6.0000000e+00 1.4000000e+01 
3.2000000e+01 0.0000000e+00 7.0000000e+00 
3.1000000e+01 6.0000000e+00 0.0000000e+00 
3.0000000e+01 1.0000000e+00 0.0000000e+00 
3.4000000e+01 5.0000000e+00 1.4000000e+01 
3.1000000e+01 5.0000000e+00 0.0000000e+00 
3.1000000e+01 0.0000000e+00 3.0000000e+00 
3.2000000e+01 0.0000000e+00 6.0000000e+00 
3.3000000e+01 0.0000000e+00 1.4000000e+01 
3.3000000e+01 0.0000000e+00 1.3000000e+01 
3.4000000e+01 4.0000000e+00 1.4000000e+01 
3.3000000e+01 0.0000000e+00 1.2000000e+01 
3.1000000e+01 4.0000000e+00 0.0000000e+00 
3.0000000e+01 0.0000000e+00 0.0000000e+00 
3.3000000e+01 0.0000000e+00 1.1000000e+01 
3.3000000e+01 0.0000000e+00 1.0000000e+01 
3.1000000e+01 0.0000000e+00 2.0000000e+00 
3.2000000e+01 0.0000000e+00 5.0000000e+00 
3.4000000e+01 3.0000000e+00 1.4000000e+01 
3.1000000e+01 3.0000000e+00 0.0000000e+00 
3.3000000e+01 0.0000000e+00 9.0000000e+00 
3.2000000e+01 1.0000000e+01 0.0000000e+00 
3.4000000e+01 2.0000000e+00 1.4000000e+01 
3.2000000e+01 9.0000000e+00 0.0000000e+00 
3.1000000e+01 2.0000000e+00 0.0000000e+00 
3.2000000e+01 0.0000000e+00 4.0000000e+00 
3.2000000e+01 8.0000000e+00 0.0000000e+00 
3.3000000e+01 0.0000000e+00 8.0000000e+00 
3.5000000e+01 1.0000000e+01 1.4000000e+01 
3.5000000e+01 9.0000000e+00 1.4000000e+01 
3.2000000e+01 7.0000000e+00 0.0000000e+00 
3.5000000e+01 8.0000000e+00 1.4000000e+01 
3.1000000e+01 0.0000000e+00 1.0000000e+00 
3.5000000e+01 7.0000000e+00 1.4000000e+01 
3.2000000e+01 6.0000000e+00 0.0000000e+00 
3.4000000e+01 1.0000000e+00 1.4000000e+01 
3.3000000e+01 0.0000000e+00 7.0000000e+00 
3.1000000e+01 1.0000000e+00 0.0000000e+00 
3.5000000e+01 6.0000000e+00 1.4000000e+01 
3.2000000e+01 5.0000000e+00 0.0000000e+00 
3.2000000e+01 0.0000000e+00 3.0000000e+00 
3.5000000e+01 5.0000000e+00 1.4000000e+01 
3.3000000e+01 0.0000000e+00 6.0000000e+00 
3.4000000e+01 0.0000000e+00 1.4000000e+01 
3.2000000e+01 4.0000000e+00 0.0000000e+00 
3.1000000e+01 0.0000000e+00 0.0000000e+00 
3.4000000e+01 0.0000000e+00 1.3000000e+01 
3.4000000e+01 0.0000000e+00 1.2000000e+01 
3.5000000e+01 4.0000000e+00 1.4000000e+01 
3.4000000e+01 0.0000000e+00 1.1000000e+01 
3.2000000e+01 0.0000000e+00 2.0000000e+00 
3.2000000e+01 3.0000000e+00 0.0000000e+00 
3.3000000e+01 0.0000000e+00 5.0000000e+00 
3.4000000e+01 0.0000000e+00 1.0000000e+01 
3.5000000e+01 3.0000000e+00 1.4000000e+01 
3.4000000e+01 0.0000000e+00 9.0000000e+00 
3.2000000e+01 2.0000000e+00 0.0000000e+00 
3.3000000e+01 1.0000000e+01 0.0000000e+00 
3.3000000e+01 9.0000000e+00 0.0000000e+00 
3.3000000e+01 8.0000000e+00 0.0000000e+00 
3.3000000e+01 0.0000000e+00 4.0000000e+00 
3.5000000e+01 2.0000000e+00 1.4000000e+01 
3.4000000e+01 0.0000000e+00 8.0000000e+00 
3.2000000e+01 0.0000000e+00 1.0000000e+00 
3.3000000e+01 7.0000000e+00 0.0000000e+00 
3.6000000e+01 1.0000000e+01 1.4000000e+01 
3.6000000e+01 9.0000000e+00 1.4000000e+01 
3.6000000e+01 8.0000000e+00 1.4000000e+01 
3.3000000e+01 6.0000000e+00 0.0000000e+00 
3.2000000e+01 1.0000000e+00 0.0000000e+00 
3.4000000e+01 0.0000000e+00 7.0000000e+00 
3.6000000e+01 7.0000000e+00 1.4000000e+01 
3.5000000e+01 1.0000000e+00 1.4000000e+01 
3.3000000e+01 0.0000000e+00 3.0000000e+00 
3.3000000e+01 5.0000000e+00 0.0000000e+00 
3.6000000e+01 6.0000000e+00 1.4000000e+01 
3.2000000e+01 0.0000000e+00 0.0000000e+00 
3.4000000e+01 0.0000000e+00 6.0000000e+00 
3.6000000e+01 5.0000000e+00 1.4000000e+01 
3.3000000e+01 4.0000000e+00 0.0000000e+00 
3.5000000e+01 0.0000000e+00 1.4000000e+01 
3.5000000e+01 0.0000000e+00 1.3000000e+01 
3.5000000e+01 0.0000000e+00 1.2000000e+01 
3.6000000e+01 4.0000000e+00 1.4000000e+01 
3.3000000e+01 0.0000000e+00 2.0000000e+00 
3.5000000e+01 0.0000000e+00 1.1000000e+01 
3.3000000e+01 3.0000000e+00 0.0000000e+00 
3.4000000e+01 0.0000000e+00 5.0000000e+00 
3.5000000e+01 0.0000000e+00 1.0000000e+01 
3.6000000e+01 3.0000000e+00 1.4000000e+01 
3.3000000e+01 2.0000000e+00 0.0000000e+00 
3.5000000e+01 0.0000000e+00 9.0000000e+00 
3.4000000e+01 1.0000000e+01 0.0000000e+00 
3.4000000e+01 9.0000000e+00 0.0000000e+00 
3.4000000e+01 8.0000000e+00 0.0000000e+00 
3.4000000e+01 0.0000000e+00 4.0000000e+00 
3.3000000e+01 0.0000000e+00 1.0000000e+00 
3.6000000e+01 2.0000000e+00 1.4000000e+01 
3.4000000e+01 7.0000000e+00 0.0000000e+00 
3.5000000e+01 0.0000000e+00 8.0000000e+00 
3.3000000e+01 1.0000000e+00 0.0000000e+00 
3.4000000e+01 6.0000000e+00 0.0000000e+00 
3.7000000e+01 1.0000000e+01 1.4000000e+01 
3.7000000e+01 9.0000000e+00 1.4000000e+01 
3.7000000e+01 8.0000000e+00 1.4000000e+01 
3.5000000e+01 0.0000000e+00 7.0000000e+00 
3.4000000e+01 0.0000000e+00 3.0000000e+00 
3.6000000e+01 1.0000000e+00 1.4000000e+01 
3.4000000e+01 5.0000000e+00 0.0000000e+00 
3.7000000e+01 7.0000000e+00 1.4000000e+01 
3.3000000e+01 0.0000000e+00 0.0000000e+00 
3.7000000e+01 6.0000000e+00 1.4000000e+01 
3.4000000e+01 4.0000000e+00 0.0000000e+00 
3.5000000e+01 0.0000000e+00 6.0000000e+00 
3.7000000e+01 5.0000000e+00 1.4000000e+01 
3.6000000e+01 0.0000000e+00 1.4000000e+01 
3.6000000e+01 0.0000000e+00 1.3000000e+01 
3.4000000e+01 0.0000000e+00 2.0000000e+00 
3.6000000e+01 0.0000000e+00 1.2000000e+01 
3.4000000e+01 3.0000000e+00 0.0000000e+00 
3.6000000e+01 0.0000000e+00 1.1000000e+01 
3.7000000e+01 4.0000000e+00 1.4000000e+01 
3.5000000e+01 0.0000000e+00 5.0000000e+00 
3.6000000e+01 0.0000000e+00 1.0000000e+01 
3.4000000e+01 2.0000000e+00 0.0000000e+00 
3.7000000e+01 3.0000000e+00 1.4000000e+01 
3.5000000e+01 1.0000000e+01 0.0000000e+00 
3.6000000e+01 0.0000000e+00 9.0000000e+00 
3.5000000e+01 9.0000000e+00 0.0000000e+00 
3.5000000e+01 0.0000000e+00 4.0000000e+00 
3.5000000e+01 8.0000000e+00 0.0000000e+00 
3.4000000e+01 0.0000000e+00 1.0000000e+00 
3.5000000e+01 7.0000000e+00 0.0000000e+00 
3.6000000e+01 0.0000000e+00 8.0000000e+00 
3.7000000e+01 2.0000000e+00 1.4000000e+01 
3.4000000e+01 1.0000000e+00 0.0000000e+00 
3.5000000e+01 6.0000000e+00 0.0000000e+00 
3.8000000e+01 1.0000000e+01 1.4000000e+01 
3.6000000e+01 0.0000000e+00 7.0000000e+00 
3.8000000e+01 9.0000000e+00 1.4000000e+01 
3.5000000e+01 5.0000000e+00 0.0000000e+00 
3.5000000e+01 0.0000000e+00 3.0000000e+00 
3.8000000e+01 8.0000000e+00 1.4000000e+01 
3.7000000e+01 1.0000000e+00 1.4000000e+01 
3.4000000e+01 0.0000000e+00 0.0000000e+00 
3.8000000e+01 7.0000000e+00 1.4000000e+01 
3.5000000e+01 4.0000000e+00 0.0000000e+00 
3.6000000e+01 0.0000000e+00 6.0000000e+00 
3.8000000e+01 6.0000000e+00 1.4000000e+01 
3.7000000e+01 0.0000000e+00 1.4000000e+01 
3.8000000e+01 5.0000000e+00 1.4000000e+01 
3.5000000e+01 0.0000000e+00 2.0000000e+00 
3.7000000e+01 0.0000000e+00 1.3000000e+01 
3.5000000e+01 3.0000000e+00 0.0000000e+00 
3.7000000e+01 0.0000000e+00 1.2000000e+01 
3.6000000e+01 0.0000000e+00 5.0000000e+00 
3.7000000e+01 0.0000000e+00 1.1000000e+01 
3.8000000e+01 4.0000000e+00 1.4000000e+01 
3.5000000e+01 2.0000000e+00 0.0000000e+00 
3.7000000e+01 0.0000000e+00 1.0000000e+01 
3.6000000e+01 1.0000000e+01 0.0000000e+00 
3.6000000e+01 9.0000000e+00 0.0000000e+00 
3.8000000e+01 3.0000000e+00 1.4000000e+01 
3.5000000e+01 0.0000000e+00 1.0000000e+00 
3.7000000e+01 0.0000000e+00 9.0000000e+00 
3.6000000e+01 8.0000000e+00 0.0000000e+00 
3.6000000e+01 0.0000000e+00 4.0000000e+00 
3.6000000e+01 7.0000000e+00 0.0000000e+00 
3.5000000e+01 1.0000000e+00 0.0000000e+00 
3.7000000e+01 0.0000000e+00 8.0000000e+00 
3.6000000e+01 6.0000000e+00 0.0000000e+00 
3.8000000e+01 2.0000000e+00 1.4000000e+01 
3.6000000e+01 5.0000000e+00 0.0000000e+00 
3.6000000e+01 0.0000000e+00 3.0000000e+00 
3.7000000e+01 0.0000000e+00 7.0000000e+00 
3.5000000e+01 0.0000000e+00 0.0000000e+00 
3.9000000e+01 1.0000000e+01 1.4000000e+01 
3.9000000e+01 9.0000000e+00 1.4000000e+01 
3.8000000e+01 1.0000000e+00 1.4000000e+01 
3.9000000e+01 8.0000000e+00 1.4000000e+01 
3.6000000e+01 4.0000000e+00 0.0000000e+00 
3.9000000e+01 7.0000000e+00 1.4000000e+01 
3.7000000e+01 0.0000000e+00 6.0000000e+00 
3.9000000e+01 6.0000000e+00 1.4000000e+01 
3.6000000e+01 0.0000000e+00 2.0000000e+00 
3.6000000e+01 3.0000000e+00 0.0000000e+00 
3.8000000e+01 0.0000000e+00 1.4000000e+01 
3.8000000e+01 0.0000000e+00 1.3000000e+01 
3.9000000e+01 5.0000000e+00 1.4000000e+01 
3.8000000e+01 0.0000000e+00 1.2000000e+01 
3.7000000e+01 0.0000000e+00 5.0000000e+00 
3.8000000e+01 0.0000000e+00 1.1000000e+01 
3.6000000e+01 2.0000000e+00 0.0000000e+00 
3.9000000e+01 4.0000000e+00 1.4000000e+01 
3.8000000e+01 0.0000000e+00 1.0000000e+01 
3.7000000e+01 1.0000000e+01 0.0000000e+00 
3.6000000e+01 0.0000000e+00 1.0000000e+00 
3.7000000e+01 9.0000000e+00 0.0000000e+00 
3.7000000e+01 8.0000000e+00 0.0000000e+00 
3.7000000e+01 0.0000000e+00 4.0000000e+00 
3.8000000e+01 0.0000000e+00 9.0000000e+00 
3.9000000e+01 3.0000000e+00 1.4000000e+01 
3.6000000e+01 1.0000000e+00 0.0000000e+00 
3.7000000e+01 7.0000000e+00 0.0000000e+00 
3.8000000e+01 0.0000000e+00 8.0000000e+00 
3.7000000e+01 6.0000000e+00 0.0000000e+00 
3.9000000e+01 2.0000000e+00 1.4000000e+01 
3.7000000e+01 5.0000000e+00 0.0000000e+00 
3.7000000e+01 0.0000000e+00 3.0000000e+00 
3.6000000e+01 0.0000000e+00 0.0000000e+00 
3.8000000e+01 0.0000000e+00 7.0000000e+00 
4.0000000e+01 1.0000000e+01 1.4000000e+01 
3.7000000e+01 4.0000000e+00 0.0000000e+00 
4.0000000e+01 9.0000000e+00 1.4000000e+01 
3.9000000e+01 1.0000000e+00 1.4000000e+01 
4.0000000e+01 8.0000000e+00 1.4000000e+01 
3.8000000e+01 0.0000000e+00 6.0000000e+00 
4.0000000e+01 7.0000000e+00 1.4000000e+01 
3.7000000e+01 0.0000000e+00 2.0000000e+00 
3.7000000e+01 3.0000000e+00 0.0000000e+00 
4.0000000e+01 6.0000000e+00 1.4000000e+01 
3.9000000e+01 0.0000000e+00 1.4000000e+01 
3.9000000e+01 0.0000000e+00 1.3000000e+01 
4.0000000e+01 5.0000000e+00 1.4000000e+01 
3.8000000e+01 0.0000000e+00 5.0000000e+00 
3.9000000e+01 0.0000000e+00 1.2000000e+01 
3.7000000e+01 2.0000000e+00 0.0000000e+00 
3.9000000e+01 0.0000000e+00 1.1000000e+01 
4.0000000e+01 4.0000000e+00 1.4000000e+01 
3.9000000e+01 0.0000000e+00 1.0000000e+01 
3.7000000e+01 0.0000000e+00 1.0000000e+00 
3.8000000e+01 1.0000000e+01 0.0000000e+00 
3.8000000e+01 9.0000000e+00 0.0000000e+00 
3.8000000e+01 8.0000000e+00 0.0000000e+00 
3.8000000e+01 0.0000000e+00 4.0000000e+00 
3.7000000e+01 1.0000000e+00 0.0000000e+00 
3.9000000e+01 0.0000000e+00 9.0000000e+00 
4.0000000e+01 3.0000000e+00 1.4000000e+01 
3.8000000e+01 7.0000000e+00 0.0000000e+00 
3.8000000e+01 6.0000000e+00 0.0000000e+00 
3.9000000e+01 0.0000000e+00 8.0000000e+00 
4.0000000e+01 2.0000000e+00 1.4000000e+01 
3.7000000e+01 0.0000000e+00 0.0000000e+00 
3.8000000e+01 5.0000000e+00 0.0000000e+00 
3.8000000e+01 0.0000000e+00 3.0000000e+00 
3.9000000e+01 0.0000000e+00 7.0000000e+00 
3.8000000e+01 4.0000000e+00 0.0000000e+00 
4.0000000e+01 1.0000000e+00 1.4000000e+01 
4.1000000e+01 1.0000000e+01 1.4000000e+01 
4.1000000e+01 9.0000000e+00 1.4000000e+01 
3.9000000e+01 0.0000000e+00 6.0000000e+00 
4.1000000e+01 8.0000000e+00 1.4000000e+01 
3.8000000e+01 0.0000000e+00 2.0000000e+00 
3.8000000e+01 3.0000000e+00 0.0000000e+00 
4.1000000e+01 7.0000000e+00 1.4000000e+01 
4.1000000e+01 6.0000000e+00 1.4000000e+01 
4.0000000e+01 0.0000000e+00 1.4000000e+01 
4.0000000e+01 0.0000000e+00 1.3000000e+01 
3.9000000e+01 0.0000000e+00 5.0000000e+00 
4.0000000e+01 0.0000000e+00 1.2000000e+01 
3.8000000e+01 2.0000000e+00 0.0000000e+00 
4.1000000e+01 5.0000000e+00 1.4000000e+01 
4.0000000e+01 0.0000000e+00 1.1000000e+01 
3.8000000e+01 0.0000000e+00 1.0000000e+00 
4.0000000e+01 0.0000000e+00 1.0000000e+01 
3.9000000e+01 1.0000000e+01 0.0000000e+00 
4.1000000e+01 4.0000000e+00 1.4000000e+01 
3.9000000e+01 9.0000000e+00 0.0000000e+00 
3.8000000e+01 1.0000000e+00 0.0000000e+00 
3.9000000e+01 8.0000000e+00 0.0000000e+00 
3.9000000e+01 0.0000000e+00 4.0000000e+00 
4.0000000e+01 0.0000000e+00 9.0000000e+00 
3.9000000e+01 7.0000000e+00 0.0000000e+00 
4.1000000e+01 3.0000000e+00 1.4000000e+01 
3.9000000e+01 6.0000000e+00 0.0000000e+00 
4.0000000e+01 0.0000000e+00 8.0000000e+00 
3.8000000e+01 0.0000000e+00 0.0000000e+00 
3.9000000e+01 5.0000000e+00 0.0000000e+00 
3.9000000e+01 0.0000000e+00 3.0000000e+00 
4.1000000e+01 2.0000000e+00 1.4000000e+01 
4.0000000e+01 0.0000000e+00 7.0000000e+00 
3.9000000e+01 4.0000000e+00 0.0000000e+00 
4.1000000e+01 1.0000000e+00 1.4000000e+01 
4.2000000e+01 1.0000000e+01 1.4000000e+01 
4.0000000e+01 0.0000000e+00 6.0000000e+00 
3.9000000e+01 0.0000000e+00 2.0000000e+00 
4.2000000e+01 9.0000000e+00 1.4000000e+01 
3.9000000e+01 3.0000000e+00 0.0000000e+00 
4.2000000e+01 8.0000000e+00 1.4000000e+01 
4.2000000e+01 7.0000000e+00 1.4000000e+01 
4.2000000e+01 6.0000000e+00 1.4000000e+01 
3.9000000e+01 2.0000000e+00 0.0000000e+00 
4.0000000e+01 0.0000000e+00 5.0000000e+00 
4.1000000e+01 0.0000000e+00 1.4000000e+01 
4.1000000e+01 0.0000000e+00 1.3000000e+01 
4.1000000e+01 0.0000000e+00 1.2000000e+01 
4.2000000e+01 5.0000000e+00 1.4000000e+01 
3.9000000e+01 0.0000000e+00 1.0000000e+00 
4.1000000e+01 0.0000000e+00 1.1000000e+01 
4.0000000e+01 1.0000000e+01 0.0000000e+00 
4.0000000e+01 9.0000000e+00 0.0000000e+00 
4.1000000e+01 0.0000000e+00 1.0000000e+01 
3.9000000e+01 1.0000000e+00 0.0000000e+00 
4.0000000e+01 0.0000000e+00 4.0000000e+00 
4.0000000e+01 8.0000000e+00 0.0000000e+00 
4.2000000e+01 4.0000000e+00 1.4000000e+01 
4.0000000e+01 7.0000000e+00 0.0000000e+00 
4.1000000e+01 0.0000000e+00 9.0000000e+00 
4.0000000e+01 6.0000000e+00 0.0000000e+00 
4.2000000e+01 3.0000000e+00 1.4000000e+01 
4.1000000e+01 0.0000000e+00 8.0000000e+00 
3.9000000e+01 0.0000000e+00 0.0000000e+00 
4.0000000e+01 5.0000000e+00 0.0000000e+00 
4.0000000e+01 0.0000000e+00 3.0000000e+00 
4.2000000e+01 2.0000000e+00 1.4000000e+01 
4.1000000e+01 0.0000000e+00 7.0000000e+00 
4.0000000e+01 4.0000000e+00 0.0000000e+00 
4.0000000e+01 0.0000000e+00 2.0000000e+00 
4.0000000e+01 3.0000000e+00 0.0000000e+00 
4.1000000e+01 0.0000000e+00 6.0000000e+00 
4.2000000e+01 1.0000000e+00 1.4000000e+01 
4.3000000e+01 1.0000000e+01 1.4000000e+01 
4.3000000e+01 9.0000000e+00 1.4000000e+01 
4.3000000e+01 8.0000000e+00 1.4000000e+01 
4.3000000e+01 7.0000000e+00 1.4000000e+01 
4.0000000e+01 2.0000000e+00 0.0000000e+00 
4.1000000e+01 0.0000000e+00 5.0000000e+00 
4.2000000e+01 0.0000000e+00 1.4000000e+01 
4.2000000e+01 0.0000000e+00 1.3000000e+01 
4.3000000e+01 6.0000000e+00 1.4000000e+01 
4.2000000e+01 0.0000000e+00 1.2000000e+01 
4.0000000e+01 0.0000000e+00 1.0000000e+00 
4.2000000e+01 0.0000000e+00 1.1000000e+01 
4.3000000e+01 5.0000000e+00 1.4000000e+01 
4.1000000e+01 1.0000000e+01 0.0000000e+00 
4.0000000e+01 1.0000000e+00 0.0000000e+00 
4.1000000e+01 9.0000000e+00 0.0000000e+00 
4.2000000e+01 0.0000000e+00 1.0000000e+01 
4.1000000e+01 8.0000000e+00 0.0000000e+00 
4.1000000e+01 0.0000000e+00 4.0000000e+00 
4.3000000e+01 4.0000000e+00 1.4000000e+01 
4.1000000e+01 7.0000000e+00 0.0000000e+00 
4.2000000e+01 0.0000000e+00 9.0000000e+00 
4.1000000e+01 6.0000000e+00 0.0000000e+00 
4.0000000e+01 0.0000000e+00 0.0000000e+00 
4.3000000e+01 3.0000000e+00 1.4000000e+01 
4.2000000e+01 0.0000000e+00 8.0000000e+00 
4.1000000e+01 5.0000000e+00 0.0000000e+00 
4.1000000e+01 0.0000000e+00 3.0000000e+00 
4.2000000e+01 0.0000000e+00 7.0000000e+00 
4.1000000e+01 4.0000000e+00 0.0000000e+00 
4.3000000e+01 2.0000000e+00 1.4000000e+01 
4.1000000e+01 0.0000000e+00 2.0000000e+00 
4.1000000e+01 3.0000000e+00 0.0000000e+00 
4.2000000e+01 0.0000000e+00 6.0000000e+00 
4.3000000e+01 1.0000000e+00 1.4000000e+01 
4.4000000e+01 1.0000000e+01 1.4000000e+01 
4.4000000e+01 9.0000000e+00 1.4000000e+01 
4.4000000e+01 8.0000000e+00 1.4000000e+01 
4.1000000e+01 2.0000000e+00 0.0000000e+00 
4.4000000e+01 7.0000000e+00 1.4000000e+01 
4.2000000e+01 0.0000000e+00 5.0000000e+00 
4.3000000e+01 0.0000000e+00 1.4000000e+01 
4.1000000e+01 0.0000000e+00 1.0000000e+00 
4.3000000e+01 0.0000000e+00 1.3000000e+01 
4.4000000e+01 6.0000000e+00 1.4000000e+01 
4.3000000e+01 0.0000000e+00 1.2000000e+01 
4.3000000e+01 0.0000000e+00 1.1000000e+01 
4.1000000e+01 1.0000000e+00 0.0000000e+00 
4.2000000e+01 1.0000000e+01 0.0000000e+00 
4.2000000e+01 9.0000000e+00 0.0000000e+00 
4.4000000e+01 5.0000000e+00 1.4000000e+01 
4.2000000e+01 8.0000000e+00 0.0000000e+00 
4.2000000e+01 0.0000000e+00 4.0000000e+00 
4.3000000e+01 0.0000000e+00 1.0000000e+01 
4.2000000e+01 7.0000000e+00 0.0000000e+00 
4.4000000e+01 4.0000000e+00 1.4000000e+01 
4.3000000e+01 0.0000000e+00 9.0000000e+00 
4.2000000e+01 6.0000000e+00 0.0000000e+00 
4.1000000e+01 0.0000000e+00 0.0000000e+00 
4.3000000e+01 0.0000000e+00 8.0000000e+00 
4.4000000e+01 3.0000000e+00 1.4000000e+01 
4.2000000e+01 5.0000000e+00 0.0000000e+00 
4.2000000e+01 0.0000000e+00 3.0000000e+00 
4.2000000e+01 4.0000000e+00 0.0000000e+00 
4.3000000e+01 0.0000000e+00 7.0000000e+00 
4.4000000e+01 2.0000000e+00 1.4000000e+01 
4.2000000e+01 0.0000000e+00 2.0000000e+00 
4.2000000e+01 3.0000000e+00 0.0000000e+00 
4.3000000e+01 0.0000000e+00 6.0000000e+00 
4.4000000e+01 1.0000000e+00 1.4000000e+01 
4.2000000e+01 2.0000000e+00 0.0000000e+00 
4.5000000e+01 1.0000000e+01 1.4000000e+01 
4.5000000e+01 9.0000000e+00 1.4000000e+01 
4.5000000e+01 8.0000000e+00 1.4000000e+01 
4.3000000e+01 0.0000000e+00 5.0000000e+00 
4.2000000e+01 0.0000000e+00 1.0000000e+00 
4.5000000e+01 7.0000000e+00 1.4000000e+01 
4.4000000e+01 0.0000000e+00 1.4000000e+01 
4.4000000e+01 0.0000000e+00 1.3000000e+01 
4.4000000e+01 0.0000000e+00 1.2000000e+01 
4.5000000e+01 6.0000000e+00 1.4000000e+01 
4.2000000e+01 1.0000000e+00 0.0000000e+00 
4.3000000e+01 1.0000000e+01 0.0000000e+00 
4.4000000e+01 0.0000000e+00 1.1000000e+01 
4.3000000e+01 9.0000000e+00 0.0000000e+00 
4.3000000e+01 8.0000000e+00 0.0000000e+00 
4.3000000e+01 0.0000000e+00 4.0000000e+00 
4.5000000e+01 5.0000000e+00 1.4000000e+01 
4.4000000e+01 0.0000000e+00 1.0000000e+01 
4.3000000e+01 7.0000000e+00 0.0000000e+00 
4.2000000e+01 0.0000000e+00 0.0000000e+00 
4.5000000e+01 4.0000000e+00 1.4000000e+01 
4.3000000e+01 6.0000000e+00 0.0000000e+00 
4.4000000e+01 0.0000000e+00 9.0000000e+00 
4.3000000e+01 0.0000000e+00 3.0000000e+00 
4.3000000e+01 5.0000000e+00 0.0000000e+00 
4.4000000e+01 0.0000000e+00 8.0000000e+00 
4.5000000e+01 3.0000000e+00 1.4000000e+01 
4.3000000e+01 4.0000000e+00 0.0000000e+00 
4.4000000e+01 0.0000000e+00 7.0000000e+00 
4.5000000e+01 2.0000000e+00 1.4000000e+01 
4.3000000e+01 0.0000000e+00 2.0000000e+00 
4.3000000e+01 3.0000000e+00 0.0000000e+00 
4.4000000e+01 0.0000000e+00 6.0000000e+00 
4.5000000e+01 1.0000000e+00 1.4000000e+01 
4.3000000e+01 2.0000000e+00 0.0000000e+00 
4.6000000e+01 1.0000000e+01 1.4000000e+01 
4.4000000e+01 0.0000000e+00 5.0000000e+00 
4.6000000e+01 9.0000000e+00 1.4000000e+01 
4.3000000e+01 0.0000000e+00 1.0000000e+00 
4.6000000e+01 8.0000000e+00 1.4000000e+01 
4.5000000e+01 0.0000000e+00 1.4000000e+01 
4.6000000e+01 7.0000000e+00 1.4000000e+01 
4.5000000e+01 0.0000000e+00 1.3000000e+01 
4.3000000e+01 1.0000000e+00 0.0000000e+00 
4.5000000e+01 0.0000000e+00 1.2000000e+01 
4.4000000e+01 1.0000000e+01 0.0000000e+00 
4.6000000e+01 6.0000000e+00 1.4000000e+01 
4.4000000e+01 9.0000000e+00 0.0000000e+00 
4.5000000e+01 0.0000000e+00 1.1000000e+01 
4.4000000e+01 8.0000000e+00 0.0000000e+00 
4.4000000e+01 0.0000000e+00 4.0000000e+00 
4.4000000e+01 7.0000000e+00 0.0000000e+00 
4.5000000e+01 0.0000000e+00 1.0000000e+01 
4.6000000e+01 5.0000000e+00 1.4000000e+01 
4.3000000e+01 0.0000000e+00 0.0000000e+00 
4.4000000e+01 6.0000000e+00 0.0000000e+00 
4.5000000e+01 0.0000000e+00 9.0000000e+00 
4.6000000e+01 4.0000000e+00 1.4000000e+01 
4.4000000e+01 5.0000000e+00 0.0000000e+00 
4.4000000e+01 0.0000000e+00 3.0000000e+00 
4.5000000e+01 0.0000000e+00 8.0000000e+00 
4.6000000e+01 3.0000000e+00 1.4000000e+01 
4.4000000e+01 4.0000000e+00 0.0000000e+00 
4.5000000e+01 0.0000000e+00 7.0000000e+00 
4.6000000e+01 2.0000000e+00 1.4000000e+01 
4.4000000e+01 0.0000000e+00 2.0000000e+00 
4.4000000e+01 3.0000000e+00 0.0000000e+00 
4.5000000e+01 0.0000000e+00 6.0000000e+00 
4.4000000e+01 2.0000000e+00 0.0000000e+00 
4.6000000e+01 1.0000000e+00 1.4000000e+01 
4.4000000e+01 0.0000000e+00 1.0000000e+00 
4.5000000e+01 0.0000000e+00 5.0000000e+00 
4.7000000e+01 1.0000000e+01 1.4000000e+01 
4.7000000e+01 9.0000000e+00 1.4000000e+01 
4.4000000e+01 1.0000000e+00 0.0000000e+00 
4.7000000e+01 8.0000000e+00 1.4000000e+01 
4.6000000e+01 0.0000000e+00 1.4000000e+01 
4.6000000e+01 0.0000000e+00 1.3000000e+01 
4.7000000e+01 7.0000000e+00 1.4000000e+01 
4.6000000e+01 0.0000000e+00 1.2000000e+01 
4.5000000e+01 1.0000000e+01 0.0000000e+00 
4.5000000e+01 9.0000000e+00 0.0000000e+00 
4.5000000e+01 8.0000000e+00 0.0000000e+00 
4.5000000e+01 0.0000000e+00 4.0000000e+00 
4.6000000e+01 0.0000000e+00 1.1000000e+01 
4.7000000e+01 6.0000000e+00 1.4000000e+01 
4.5000000e+01 7.0000000e+00 0.0000000e+00 
4.4000000e+01 0.0000000e+00 0.0000000e+00 
4.6000000e+01 0.0000000e+00 1.0000000e+01 
4.7000000e+01 5.0000000e+00 1.4000000e+01 
4.5000000e+01 6.0000000e+00 0.0000000e+00 
4.6000000e+01 0.0000000e+00 9.0000000e+00 
4.7000000e+01 4.0000000e+00 1.4000000e+01 
4.5000000e+01 0.0000000e+00 3.0000000e+00 
4.5000000e+01 5.0000000e+00 0.0000000e+00 
4.6000000e+01 0.0000000e+00 8.0000000e+00 
4.5000000e+01 4.0000000e+00 0.0000000e+00 
4.7000000e+01 3.0000000e+00 1.4000000e+01 
4.6000000e+01 0.0000000e+00 7.0000000e+00 
4.5000000e+01 0.0000000e+00 2.0000000e+00 
4.5000000e+01 3.0000000e+00 0.0000000e+00 
4.7000000e+01 2.0000000e+00 1.4000000e+01 
4.6000000e+01 0.0000000e+00 6.0000000e+00 
4.5000000e+01 2.0000000e+00 0.0000000e+00 
4.7000000e+01 1.0000000e+00 1.4000000e+01 
4.5000000e+01 0.0000000e+00 1.0000000e+00 
4.6000000e+01 0.0000000e+00 5.0000000e+00 
4.5000000e+01 1.0000000e+00 0.0000000e+00 
4.8000000e+01 1.0000000e+01 1.4000000e+01 
4.8000000e+01 9.0000000e+00 1.4000000e+01 
4.8000000e+01 8.0000000e+00 1.4000000e+01 
4.7000000e+01 0.0000000e+00 1.4000000e+01 
4.7000000e+01 0.0000000e+00 1.3000000e+01 
4.6000000e+01 1.0000000e+01 0.0000000e+00 
4.6000000e+01 9.0000000e+00 0.0000000e+00 
4.7000000e+01 0.0000000e+00 1.2000000e+01 
4.8000000e+01 7.0000000e+00 1.4000000e+01 
4.6000000e+01 8.0000000e+00 0.0000000e+00 
4.6000000e+01 0.0000000e+00 4.0000000e+00 
4.7000000e+01 0.0000000e+00 1.1000000e+01 
4.8000000e+01 6.0000000e+00 1.4000000e+01 
4.5000000e+01 0.0000000e+00 0.0000000e+00 
4.6000000e+01 7.0000000e+00 0.0000000e+00 
4.7000000e+01 0.0000000e+00 1.0000000e+01 
4.6000000e+01 6.0000000e+00 0.0000000e+00 
4.8000000e+01 5.0000000e+00 1.4000000e+01 
4.7000000e+01 0.0000000e+00 9.0000000e+00 
4.6000000e+01 0.0000000e+00 3.0000000e+00 
4.6000000e+01 5.0000000e+00 0.0000000e+00 
4.8000000e+01 4.0000000e+00 1.4000000e+01 
4.7000000e+01 0.0000000e+00 8.0000000e+00 
4.6000000e+01 4.0000000e+00 0.0000000e+00 
4.8000000e+01 3.0000000e+00 1.4000000e+01 
4.7000000e+01 0.0000000e+00 7.0000000e+00 
4.6000000e+01 0.0000000e+00 2.0000000e+00 
4.6000000e+01 3.0000000e+00 0.0000000e+00 
4.8000000e+01 2.0000000e+00 1.4000000e+01 
4.7000000e+01 0.0000000e+00 6.0000000e+00 
4.6000000e+01 2.0000000e+00 0.0000000e+00 
4.8000000e+01 1.0000000e+00 1.4000000e+01 
4.6000000e+01 0.0000000e+00 1.0000000e+00 
4.7000000e+01 0.0000000e+00 5.0000000e+00 
4.6000000e+01 1.0000000e+00 0.0000000e+00 
4.9000000e+01 1.0000000e+01 1.4000000e+01 
4.9000000e+01 9.0000000e+00 1.4000000e+01 
4.8000000e+01 0.0000000e+00 1.4000000e+01 
4.8000000e+01 0.0000000e+00 1.3000000e+01 
4.7000000e+01 1.0000000e+01 0.0000000e+00 
4.9000000e+01 8.0000000e+00 1.4000000e+01 
4.7000000e+01 9.0000000e+00 0.0000000e+00 
4.8000000e+01 0.0000000e+00 1.2000000e+01 
4.7000000e+01 8.0000000e+00 0.0000000e+00 
4.7000000e+01 0.0000000e+00 4.0000000e+00 
4.9000000e+01 7.0000000e+00 1.4000000e+01 
4.6000000e+01 0.0000000e+00 0.0000000e+00 
4.8000000e+01 0.0000000e+00 1.1000000e+01 
4.7000000e+01 7.0000000e+00 0.0000000e+00 
4.9000000e+01 6.0000000e+00 1.4000000e+01 
4.8000000e+01 0.0000000e+00 1.0000000e+01 
4.7000000e+01 6.0000000e+00 0.0000000e+00 
4.9000000e+01 5.0000000e+00 1.4000000e+01 
4.8000000e+01 0.0000000e+00 9.0000000e+00 
4.7000000e+01 5.0000000e+00 0.0000000e+00 
4.7000000e+01 0.0000000e+00 3.0000000e+00 
4.9000000e+01 4.0000000e+00 1.4000000e+01 
4.8000000e+01 0.0000000e+00 8.0000000e+00 
4.7000000e+01 4.0000000e+00 0.0000000e+00 
4.9000000e+01 3.0000000e+00 1.4000000e+01 
4.8000000e+01 0.0000000e+00 7.0000000e+00 
4.7000000e+01 0.0000000e+00 2.0000000e+00 
4.7000000e+01 3.0000000e+00 0.0000000e+00 
4.9000000e+01 2.0000000e+00 1.4000000e+01 
4.8000000e+01 0.0000000e+00 6.0000000e+00 
4.7000000e+01 2.0000000e+00 0.0000000e+00 
4.7000000e+01 0.0000000e+00 1.0000000e+00 
4.9000000e+01 1.0000000e+00 1.4000000e+01 
4.8000000e+01 0.0000000e+00 5.0000000e+00 
4.7000000e+01 1.0000000e+00 0.0000000e+00 
4.8000000e+01 1.0000000e+01 0.0000000e+00 
5.0000000e+01 1.0000000e+01 1.4000000e+01 
5.0000000e+01 9.0000000e+00 1.4000000e+01 
4.9000000e+01 0.0000000e+00 1.4000000e+01 
4.8000000e+01 9.0000000e+00 0.0000000e+00 
4.9000000e+01 0.0000000e+00 1.3000000e+01 
5.0000000e+01 8.0000000e+00 1.4000000e+01 
4.8000000e+01 8.0000000e+00 0.0000000e+00 
4.8000000e+01 0.0000000e+00 4.0000000e+00 
4.9000000e+01 0.0000000e+00 1.2000000e+01 
4.7000000e+01 0.0000000e+00 0.0000000e+00 
5.0000000e+01 7.0000000e+00 1.4000000e+01 
4.8000000e+01 7.0000000e+00 0.0000000e+00 
4.9000000e+01 0.0000000e+00 1.1000000e+01 
5.0000000e+01 6.0000000e+00 1.4000000e+01 
4.8000000e+01 6.0000000e+00 0.0000000e+00 
4.9000000e+01 0.0000000e+00 1.0000000e+01 
5.0000000e+01 5.0000000e+00 1.4000000e+01 
4.8000000e+01 5.0000000e+00 0.0000000e+00 
4.8000000e+01 0.0000000e+00 3.0000000e+00 
4.9000000e+01 0.0000000e+00 9.0000000e+00 
5.0000000e+01 4.0000000e+00 1.4000000e+01 
4.8000000e+01 4.0000000e+00 0.0000000e+00 
4.9000000e+01 0.0000000e+00 8.0000000e+00 
4.8000000e+01 0.0000000e+00 2.0000000e+00 
5.0000000e+01 3.0000000e+00 1.4000000e+01 
4.8000000e+01 3.0000000e+00 0.0000000e+00 
4.9000000e+01 0.0000000e+00 7.0000000e+00 
5.0000000e+01 2.0000000e+00 1.4000000e+01 
4.8000000e+01 2.0000000e+00 0.0000000e+00 
4.9000000e+01 0.0000000e+00 6.0000000e+00 
4.8000000e+01 0.0000000e+00 1.0000000e+00 
5.0000000e+01 1.0000000e+00 1.4000000e+01 
4.8000000e+01 1.0000000e+00 0.0000000e+00 
4.9000000e+01 0.0000000e+00 5.0000000e+00 
4.9000000e+01 1.0000000e+01 0.0000000e+00 
4.9000000e+01 9.0000000e+00 0.0000000e+00 
4.8000000e+01 0.0000000e+00 0.0000000e+00 
5.0000000e+01 0.0000000e+00 1.4000000e+01 
4.9000000e+01 8.0000000e+00 0.0000000e+00 
5.1000000e+01 1.0000000e+01 1.4000000e+01 
4.9000000e+01 0.0000000e+00 4.0000000e+00 
5.0000000e+01 0.0000000e+00 1.3000000e+01 
5.1000000e+01 9.0000000e+00 1.4000000e+01 
5.0000000e+01 0.0000000e+00 1.2000000e+01 
5.1000000e+01 8.0000000e+00 1.4000000e+01 
4.9000000e+01 7.0000000e+00 0.0000000e+00 
5.0000000e+01 0.0000000e+00 1.1000000e+01 
5.1000000e+01 7.0000000e+00 1.4000000e+01 
4.9000000e+01 6.0000000e+00 0.0000000e+00 
5.0000000e+01 0.0000000e+00 1.0000000e+01 
5.1000000e+01 6.0000000e+00 1.4000000e+01 
4.9000000e+01 5.0000000e+00 0.0000000e+00 
4.9000000e+01 0.0000000e+00 3.0000000e+00 
5.0000000e+01 0.0000000e+00 9.0000000e+00 
5.1000000e+01 5.0000000e+00 1.4000000e+01 
4.9000000e+01 4.0000000e+00 0.0000000e+00 
5.0000000e+01 0.0000000e+00 8.0000000e+00 
5.1000000e+01 4.0000000e+00 1.4000000e+01 
4.9000000e+01 0.0000000e+00 2.0000000e+00 
4.9000000e+01 3.0000000e+00 0.0000000e+00 
5.0000000e+01 0.0000000e+00 7.0000000e+00 
5.1000000e+01 3.0000000e+00 1.4000000e+01 
4.9000000e+01 2.0000000e+00 0.0000000e+00 
5.0000000e+01 0.0000000e+00 6.0000000e+00 
5.1000000e+01 2.0000000e+00 1.4000000e+01 
4.9000000e+01 0.0000000e+00 1.0000000e+00 
4.9000000e+01 1.0000000e+00 0.0000000e+00 
5.0000000e+01 0.0000000e+00 5.0000000e+00 
5.1000000e+01 1.0000000e+00 1.4000000e+01 
5.0000000e+01 1.0000000e+01 0.0000000e+00 
5.0000000e+01 9.0000000e+00 0.0000000e+00 
4.9000000e+01 0.0000000e+00 0.0000000e+00 
5.0000000e+01 8.0000000e+00 0.0000000e+00 
5.0000000e+01 0.0000000e+00 4.0000000e+00 
5.1000000e+01 0.0000000e+00 1.4000000e+01 
5.1000000e+01 0.0000000e+00 1.3000000e+01 
5.2000000e+01 1.0000000e+01 1.4000000e+01 
5.0000000e+01 7.0000000e+00 0.0000000e+00 
5.1000000e+01 0.0000000e+00 1.2000000e+01 
5.2000000e+01 9.0000000e+00 1.4000000e+01 
5.2000000e+01 8.0000000e+00 1.4000000e+01 
5.1000000e+01 0.0000000e+00 1.1000000e+01 
5.0000000e+01 6.0000000e+00 0.0000000e+00 
5.2000000e+01 7.0000000e+00 1.4000000e+01 
5.1000000e+01 0.0000000e+00 1.0000000e+01 
5.2000000e+01 6.0000000e+00 1.4000000e+01 
5.0000000e+01 5.0000000e+00 0.0000000e+00 
5.0000000e+01 0.0000000e+00 3.0000000e+00 
5.1000000e+01 0.0000000e+00 9.0000000e+00 
5.2000000e+01 5.0000000e+00 1.4000000e+01 
5.0000000e+01 4.0000000e+00 0.0000000e+00 
5.1000000e+01 0.0000000e+00 8.0000000e+00 
5.2000000e+01 4.0000000e+00 1.4000000e+01 
5.0000000e+01 0.0000000e+00 2.0000000e+00 
5.0000000e+01 3.0000000e+00 0.0000000e+00 
5.1000000e+01 0.0000000e+00 7.0000000e+00 
5.2000000e+01 3.0000000e+00 1.4000000e+01 
5.0000000e+01 2.0000000e+00 0.0000000e+00 
5.1000000e+01 0.0000000e+00 6.0000000e+00 
5.2000000e+01 2.0000000e+00 1.4000000e+01 
5.0000000e+01 0.0000000e+00 1.0000000e+00 
5.0000000e+01 1.0000000e+00 0.0000000e+00 
5.1000000e+01 0.0000000e+00 5.0000000e+00 
5.2000000e+01 1.0000000e+00 1.4000000e+01 
5.0000000e+01 0.0000000e+00 0.0000000e+00 
5.1000000e+01 1.0000000e+01 0.0000000e+00 
5.1000000e+01 9.0000000e+00 0.0000000e+00 
5.1000000e+01 8.0000000e+00 0.0000000e+00 
5.1000000e+01 0.0000000e+00 4.0000000e+00 
5.2000000e+01 0.0000000e+00 1.4000000e+01 
5.2000000e+01 0.0000000e+00 1.3000000e+01 
5.1000000e+01 7.0000000e+00 0.0000000e+00 
5.2000000e+01 0.0000000e+00 1.2000000e+01 
5.3000000e+01 1.0000000e+01 1.4000000e+01 
5.3000000e+01 9.0000000e+00 1.4000000e+01 
5.2000000e+01 0.0000000e+00 1.1000000e+01 
5.1000000e+01 6.0000000e+00 0.0000000e+00 
5.3000000e+01 8.0000000e+00 1.4000000e+01 
5.3000000e+01 7.0000000e+00 1.4000000e+01 
5.2000000e+01 0.0000000e+00 1.0000000e+01 
5.1000000e+01 5.0000000e+00 0.0000000e+00 
5.1000000e+01 0.0000000e+00 3.0000000e+00 
5.3000000e+01 6.0000000e+00 1.4000000e+01 
5.2000000e+01 0.0000000e+00 9.0000000e+00 
5.1000000e+01 4.0000000e+00 0.0000000e+00 
5.3000000e+01 5.0000000e+00 1.4000000e+01 
5.2000000e+01 0.0000000e+00 8.0000000e+00 
5.1000000e+01 0.0000000e+00 2.0000000e+00 
5.3000000e+01 4.0000000e+00 1.4000000e+01 
5.1000000e+01 3.0000000e+00 0.0000000e+00 
5.2000000e+01 0.0000000e+00 7.0000000e+00 
5.3000000e+01 3.0000000e+00 1.4000000e+01 
5.1000000e+01 2.0000000e+00 0.0000000e+00 
5.2000000e+01 0.0000000e+00 6.0000000e+00 
5.1000000e+01 0.0000000e+00 1.0000000e+00 
5.3000000e+01 2.0000000e+00 1.4000000e+01 
5.1000000e+01 1.0000000e+00 0.0000000e+00 
5.2000000e+01 0.0000000e+00 5.0000000e+00 
5.3000000e+01 1.0000000e+00 1.4000000e+01 
5.1000000e+01 0.0000000e+00 0.0000000e+00 
5.2000000e+01 1.0000000e+01 0.0000000e+00 
5.2000000e+01 9.0000000e+00 0.0000000e+00 
5.2000000e+01 8.0000000e+00 0.0000000e+00 
5.2000000e+01 0.0000000e+00 4.0000000e+00 
5.3000000e+01 0.0000000e+00 1.4000000e+01 
5.2000000e+01 7.0000000e+00 0.0000000e+00 
5.3000000e+01 0.0000000e+00 1.3000000e+01 
5.3000000e+01 0.0000000e+00 1.2000000e+01 
5.4000000e+01 1.0000000e+01 1.4000000e+01 
5.2000000e+01 6.0000000e+00 0.0000000e+00 
5.4000000e+01 9.0000000e+00 1.4000000e+01 
5.3000000e+01 0.0000000e+00 1.1000000e+01 
5.4000000e+01 8.0000000e+00 1.4000000e+01 
5.3000000e+01 0.0000000e+00 1.0000000e+01 
5.4000000e+01 7.0000000e+00 1.4000000e+01 
5.2000000e+01 5.0000000e+00 0.0000000e+00 
5.2000000e+01 0.0000000e+00 3.0000000e+00 
5.4000000e+01 6.0000000e+00 1.4000000e+01 
5.3000000e+01 0.0000000e+00 9.0000000e+00 
5.2000000e+01 4.0000000e+00 0.0000000e+00 
5.4000000e+01 5.0000000e+00 1.4000000e+01 
5.3000000e+01 0.0000000e+00 8.0000000e+00 
5.2000000e+01 0.0000000e+00 2.0000000e+00 
5.2000000e+01 3.0000000e+00 0.0000000e+00 
5.4000000e+01 4.0000000e+00 1.4000000e+01 
5.3000000e+01 0.0000000e+00 7.0000000e+00 
5.2000000e+01 2.0000000e+00 0.0000000e+00 
5.4000000e+01 3.0000000e+00 1.4000000e+01 
5.3000000e+01 0.0000000e+00 6.0000000e+00 
5.2000000e+01 0.0000000e+00 1.0000000e+00 
5.4000000e+01 2.0000000e+00 1.4000000e+01 
5.2000000e+01 1.0000000e+00 0.0000000e+00 
5.3000000e+01 0.0000000e+00 5.0000000e+00 
5.4000000e+01 1.0000000e+00 1.4000000e+01 
5.2000000e+01 0.0000000e+00 0.0000000e+00 
5.3000000e+01 1.0000000e+01 0.0000000e+00 
5.3000000e+01 9.0000000e+00 0.0000000e+00 
5.3000000e+01 8.0000000e+00 0.0000000e+00 
5.3000000e+01 0.0000000e+00 4.0000000e+00 
5.3000000e+01 7.0000000e+00 0.0000000e+00 
5.4000000e+01 0.0000000e+00 1.4000000e+01 
5.4000000e+01 0.0000000e+00 1.3000000e+01 
5.4000000e+01 0.0000000e+00 1.2000000e+01 
5.3000000e+01 6.0000000e+00 0.0000000e+00 
5.4000000e+01 0.0000000e+00 1.1000000e+01 
5.5000000e+01 1.0000000e+01 1.4000000e+01 
5.5000000e+01 9.0000000e+00 1.4000000e+01 
5.5000000e+01 8.0000000e+00 1.4000000e+01 
5.3000000e+01 5.0000000e+00 0.0000000e+00 
5.3000000e+01 0.0000000e+00 3.0000000e+00 
5.4000000e+01 0.0000000e+00 1.0000000e+01 
5.5000000e+01 7.0000000e+00 1.4000000e+01 
5.4000000e+01 0.0000000e+00 9.0000000e+00 
5.3000000e+01 4.0000000e+00 0.0000000e+00 
5.5000000e+01 6.0000000e+00 1.4000000e+01 
5.5000000e+01 5.0000000e+00 1.4000000e+01 
5.4000000e+01 0.0000000e+00 8.0000000e+00 
5.3000000e+01 0.0000000e+00 2.0000000e+00 
5.3000000e+01 3.0000000e+00 0.0000000e+00 
5.5000000e+01 4.0000000e+00 1.4000000e+01 
5.4000000e+01 0.0000000e+00 7.0000000e+00 
5.3000000e+01 2.0000000e+00 0.0000000e+00 
5.5000000e+01 3.0000000e+00 1.4000000e+01 
5.3000000e+01 0.0000000e+00 1.0000000e+00 
5.4000000e+01 0.0000000e+00 6.0000000e+00 
5.3000000e+01 1.0000000e+00 0.0000000e+00 
5.5000000e+01 2.0000000e+00 1.4000000e+01 
5.4000000e+01 0.0000000e+00 5.0000000e+00 
5.3000000e+01 0.0000000e+00 0.0000000e+00 
5.5000000e+01 1.0000000e+00 1.4000000e+01 
5.4000000e+01 1.0000000e+01 0.0000000e+00 
5.4000000e+01 9.0000000e+00 0.0000000e+00 
5.4000000e+01 8.0000000e+00 0.0000000e+00 
5.4000000e+01 0.0000000e+00 4.0000000e+00 
5.4000000e+01 7.0000000e+00 0.0000000e+00 
5.5000000e+01 0.0000000e+00 1.4000000e+01 
5.5000000e+01 0.0000000e+00 1.3000000e+01 
5.4000000e+01 6.0000000e+00 0.0000000e+00 
5.5000000e+01 0.0000000e+00 1.2000000e+01 
5.5000000e+01 0.0000000e+00 1.1000000e+01 
5.6000000e+01 1.0000000e+01 1.4000000e+01 
5.4000000e+01 5.0000000e+00 0.0000000e+00 
5.4000000e+01 0.0000000e+00 3.0000000e+00 
5.6000000e+01 9.0000000e+00 1.4000000e+01 
5.6000000e+01 8.0000000e+00 1.4000000e+01 
5.5000000e+01 0.0000000e+00 1.0000000e+01 
5.6000000e+01 7.0000000e+00 1.4000000e+01 
5.4000000e+01 4.0000000e+00 0.0000000e+00 
5.5000000e+01 0.0000000e+00 9.0000000e+00 
5.6000000e+01 6.0000000e+00 1.4000000e+01 
5.4000000e+01 0.0000000e+00 2.0000000e+00 
5.5000000e+01 0.0000000e+00 8.0000000e+00 
5.4000000e+01 3.0000000e+00 0.0000000e+00 
5.6000000e+01 5.0000000e+00 1.4000000e+01 
5.6000000e+01 4.0000000e+00 1.4000000e+01 
5.5000000e+01 0.0000000e+00 7.0000000e+00 
5.4000000e+01 2.0000000e+00 0.0000000e+00 
5.4000000e+01 0.0000000e+00 1.0000000e+00 
5.6000000e+01 3.0000000e+00 1.4000000e+01 
5.5000000e+01 0.0000000e+00 6.0000000e+00 
5.4000000e+01 1.0000000e+00 0.0000000e+00 
5.6000000e+01 2.0000000e+00 1.4000000e+01 
5.5000000e+01 0.0000000e+00 5.0000000e+00 
5.4000000e+01 0.0000000e+00 0.0000000e+00 
5.6000000e+01 1.0000000e+00 1.4000000e+01 
5.5000000e+01 1.0000000e+01 0.0000000e+00 
5.5000000e+01 9.0000000e+00 0.0000000e+00 
5.5000000e+01 8.0000000e+00 0.0000000e+00 
5.5000000e+01 0.0000000e+00 4.0000000e+00 
5.5000000e+01 7.0000000e+00 0.0000000e+00 
5.6000000e+01 0.0000000e+00 1.4000000e+01 
5.5000000e+01 6.0000000e+00 0.0000000e+00 
5.6000000e+01 0.0000000e+00 1.3000000e+01 
5.6000000e+01 0.0000000e+00 1.2000000e+01 
5.6000000e+01 0.0000000e+00 1.1000000e+01 
5.5000000e+01 5.0000000e+00 0.0000000e+00 
5.5000000e+01 0.0000000e+00 3.0000000e+00 
5.7000000e+01 1.0000000e+01 1.4000000e+01 
5.7000000e+01 9.0000000e+00 1.4000000e+01 
5.6000000e+01 0.0000000e+00 1.0000000e+01 
5.7000000e+01 8.0000000e+00 1.4000000e+01 
5.5000000e+01 4.0000000e+00 0.0000000e+00 
5.7000000e+01 7.0000000e+00 1.4000000e+01 
5.6000000e+01 0.0000000e+00 9.0000000e+00 
5.7000000e+01 6.0000000e+00 1.4000000e+01 
5.5000000e+01 0.0000000e+00 2.0000000e+00 
5.5000000e+01 3.0000000e+00 0.0000000e+00 
5.6000000e+01 0.0000000e+00 8.0000000e+00 
5.7000000e+01 5.0000000e+00 1.4000000e+01 
5.6000000e+01 0.0000000e+00 7.0000000e+00 
5.7000000e+01 4.0000000e+00 1.4000000e+01 
5.5000000e+01 2.0000000e+00 0.0000000e+00 
5.5000000e+01 0.0000000e+00 1.0000000e+00 
5.7000000e+01 3.0000000e+00 1.4000000e+01 
5.6000000e+01 0.0000000e+00 6.0000000e+00 
5.5000000e+01 1.0000000e+00 0.0000000e+00 
5.7000000e+01 2.0000000e+00 1.4000000e+01 
5.6000000e+01 0.0000000e+00 5.0000000e+00 
5.5000000e+01 0.0000000e+00 0.0000000e+00 
5.7000000e+01 1.0000000e+00 1.4000000e+01 
5.6000000e+01 1.0000000e+01 0.0000000e+00 
5.6000000e+01 9.0000000e+00 0.0000000e+00 
5.6000000e+01 8.0000000e+00 0.0000000e+00 
5.6000000e+01 0.0000000e+00 4.0000000e+00 
5.6000000e+01 7.0000000e+00 0.0000000e+00 
5.6000000e+01 6.0000000e+00 0.0000000e+00 
5.7000000e+01 0.0000000e+00 1.4000000e+01 
5.7000000e+01 0.0000000e+00 1.3000000e+01 
5.7000000e+01 0.0000000e+00 1.2000000e+01 
5.6000000e+01 5.0000000e+00 0.0000000e+00 
5.6000000e+01 0.0000000e+00 3.0000000e+00 
5.7000000e+01 0.0000000e+00 1.1000000e+01 
5.8000000e+01 1.0000000e+01 1.4000000e+01 
5.8000000e+01 9.0000000e+00 1.4000000e+01 
5.7000000e+01 0.0000000e+00 1.0000000e+01 
5.8000000e+01 8.0000000e+00 1.4000000e+01 
5.6000000e+01 4.0000000e+00 0.0000000e+00 
5.8000000e+01 7.0000000e+00 1.4000000e+01 
5.7000000e+01 0.0000000e+00 9.0000000e+00 
5.8000000e+01 6.0000000e+00 1.4000000e+01 
5.6000000e+01 0.0000000e+00 2.0000000e+00 
5.6000000e+01 3.0000000e+00 0.0000000e+00 
5.7000000e+01 0.0000000e+00 8.0000000e+00 
5.8000000e+01 5.0000000e+00 1.4000000e+01 
5.6000000e+01 2.0000000e+00 0.0000000e+00 
5.7000000e+01 0.0000000e+00 7.0000000e+00 
5.8000000e+01 4.0000000e+00 1.4000000e+01 
5.6000000e+01 0.0000000e+00 1.0000000e+00 
5.8000000e+01 3.0000000e+00 1.4000000e+01 
5.6000000e+01 1.0000000e+00 0.0000000e+00 
5.7000000e+01 0.0000000e+00 6.0000000e+00 
5.8000000e+01 2.0000000e+00 1.4000000e+01 
5.7000000e+01 0.0000000e+00 5.0000000e+00 
5.6000000e+01 0.0000000e+00 0.0000000e+00 
5.7000000e+01 1.0000000e+01 0.0000000e+00 
5.8000000e+01 1.0000000e+00 1.4000000e+01 
5.7000000e+01 9.0000000e+00 0.0000000e+00 
5.7000000e+01 0.0000000e+00 4.0000000e+00 
5.7000000e+01 8.0000000e+00 0.0000000e+00 
5.7000000e+01 7.0000000e+00 0.0000000e+00 
5.7000000e+01 6.0000000e+00 0.0000000e+00 
5.8000000e+01 0.0000000e+00 1.4000000e+01 
5.8000000e+01 0.0000000e+00 1.3000000e+01 
5.8000000e+01 0.0000000e+00 1.2000000e+01 
5.7000000e+01 5.0000000e+00 0.0000000e+00 
5.7000000e+01 0.0000000e+00 3.0000000e+00 
5.8000000e+01 0.0000000e+00 1.1000000e+01 
5.8000000e+01 0.0000000e+00 1.0000000e+01 
5.9000000e+01 1.0000000e+01 1.4000000e+01 
5.7000000e+01 4.0000000e+00 0.0000000e+00 
5.9000000e+01 9.0000000e+00 1.4000000e+01 
5.9000000e+01 8.0000000e+00 1.4000000e+01 
5.8000000e+01 0.0000000e+00 9.0000000e+00 
5.9000000e+01 7.0000000e+00 1.4000000e+01 
5.7000000e+01 0.0000000e+00 2.0000000e+00 
5.7000000e+01 3.0000000e+00 0.0000000e+00 
5.9000000e+01 6.0000000e+00 1.4000000e+01 
5.8000000e+01 0.0000000e+00 8.0000000e+00 
5.9000000e+01 5.0000000e+00 1.4000000e+01 
5.7000000e+01 2.0000000e+00 0.0000000e+00 
5.8000000e+01 0.0000000e+00 7.0000000e+00 
5.9000000e+01 4.0000000e+00 1.4000000e+01 
5.7000000e+01 0.0000000e+00 1.0000000e+00 
5.7000000e+01 1.0000000e+00 0.0000000e+00 
5.8000000e+01 0.0000000e+00 6.0000000e+00 
5.9000000e+01 3.0000000e+00 1.4000000e+01 
5.7000000e+01 0.0000000e+00 0.0000000e+00 
5.8000000e+01 0.0000000e+00 5.0000000e+00 
5.9000000e+01 2.0000000e+00 1.4000000e+01 
5.8000000e+01 1.0000000e+01 0.0000000e+00 
5.8000000e+01 9.0000000e+00 0.0000000e+00 
5.9000000e+01 1.0000000e+00 1.4000000e+01 
5.8000000e+01 8.0000000e+00 0.0000000e+00 
5.8000000e+01 0.0000000e+00 4.0000000e+00 
5.8000000e+01 7.0000000e+00 0.0000000e+00 
5.8000000e+01 6.0000000e+00 0.0000000e+00 
5.9000000e+01 0.0000000e+00 1.4000000e+01 
5.9000000e+01 0.0000000e+00 1.3000000e+01 
5.8000000e+01 5.0000000e+00 0.0000000e+00 
5.8000000e+01 0.0000000e+00 3.0000000e+00 
5.9000000e+01 0.0000000e+00 1.2000000e+01 
5.9000000e+01 0.0000000e+00 1.1000000e+01 
5.8000000e+01 4.0000000e+00 0.0000000e+00 
5.9000000e+01 0.0000000e+00 1.0000000e+01 
6.0000000e+01 1.0000000e+01 1.4000000e+01 
6.0000000e+01 9.0000000e+00 1.4000000e+01 
6.0000000e+01 8.0000000e+00 1.4000000e+01 
5.9000000e+01 0.0000000e+00 9.0000000e+00 
5.8000000e+01 0.0000000e+00 2.0000000e+00 
5.8000000e+01 3.0000000e+00 0.0000000e+00 
6.0000000e+01 7.0000000e+00 1.4000000e+01 
6.0000000e+01 6.0000000e+00 1.4000000e+01 
5.9000000e+01 0.0000000e+00 8.0000000e+00 
5.8000000e+01 2.0000000e+00 0.0000000e+00 
6.0000000e+01 5.0000000e+00 1.4000000e+01 
5.9000000e+01 0.0000000e+00 7.0000000e+00 
5.8000000e+01 0.0000000e+00 1.0000000e+00 
6.0000000e+01 4.0000000e+00 1.4000000e+01 
5.8000000e+01 1.0000000e+00 0.0000000e+00 
5.9000000e+01 0.0000000e+00 6.0000000e+00 
6.0000000e+01 3.0000000e+00 1.4000000e+01 
5.8000000e+01 0.0000000e+00 0.0000000e+00 
5.9000000e+01 0.0000000e+00 5.0000000e+00 
6.0000000e+01 2.0000000e+00 1.4000000e+01 
5.9000000e+01 1.0000000e+01 0.0000000e+00 
5.9000000e+01 9.0000000e+00 0.0000000e+00 
5.9000000e+01 8.0000000e+00 0.0000000e+00 
5.9000000e+01 0.0000000e+00 4.0000000e+00 
6.0000000e+01 1.0000000e+00 1.4000000e+01 
5.9000000e+01 7.0000000e+00 0.0000000e+00 
5.9000000e+01 6.0000000e+00 0.0000000e+00 
6.0000000e+01 0.0000000e+00 1.4000000e+01 
6.0000000e+01 0.0000000e+00 1.3000000e+01 
5.9000000e+01 5.0000000e+00 0.0000000e+00 
5.9000000e+01 0.0000000e+00 3.0000000e+00 
6.0000000e+01 0.0000000e+00 1.2000000e+01 
6.0000000e+01 0.0000000e+00 1.1000000e+01 
5.9000000e+01 4.0000000e+00 0.0000000e+00 
6.0000000e+01 0.0000000e+00 1.0000000e+01 
6.1000000e+01 1.0000000e+01 1.4000000e+01 
6.1000000e+01 9.0000000e+00 1.4000000e+01 
5.9000000e+01 0.0000000e+00 2.0000000e+00 
6.0000000e+01 0.0000000e+00 9.0000000e+00 
6.1000000e+01 8.0000000e+00 1.4000000e+01 
5.9000000e+01 3.0000000e+00 0.0000000e+00 
6.1000000e+01 7.0000000e+00 1.4000000e+01 
6.0000000e+01 0.0000000e+00 8.0000000e+00 
6.1000000e+01 6.0000000e+00 1.4000000e+01 
5.9000000e+01 2.0000000e+00 0.0000000e+00 
6.1000000e+01 5.0000000e+00 1.4000000e+01 
6.0000000e+01 0.0000000e+00 7.0000000e+00 
5.9000000e+01 0.0000000e+00 1.0000000e+00 
6.1000000e+01 4.0000000e+00 1.4000000e+01 
5.9000000e+01 1.0000000e+00 0.0000000e+00 
6.0000000e+01 0.0000000e+00 6.0000000e+00 
6.1000000e+01 3.0000000e+00 1.4000000e+01 
5.9000000e+01 0.0000000e+00 0.0000000e+00 
6.0000000e+01 0.0000000e+00 5.0000000e+00 
6.1000000e+01 2.0000000e+00 1.4000000e+01 
6.0000000e+01 1.0000000e+01 0.0000000e+00 
6.0000000e+01 9.0000000e+00 0.0000000e+00 
6.0000000e+01 0.0000000e+00 4.0000000e+00 
6.0000000e+01 8.0000000e+00 0.0000000e+00 
6.1000000e+01 1.0000000e+00 1.4000000e+01 
6.0000000e+01 7.0000000e+00 0.0000000e+00 
6.0000000e+01 6.0000000e+00 0.0000000e+00 
6.0000000e+01 5.0000000e+00 0.0000000e+00 
6.0000000e+01 0.0000000e+00 3.0000000e+00 
6.1000000e+01 0.0000000e+00 1.4000000e+01 
6.1000000e+01 0.0000000e+00 1.3000000e+01 
6.1000000e+01 0.0000000e+00 1.2000000e+01 
6.1000000e+01 0.0000000e+00 1.1000000e+01 
6.0000000e+01 4.0000000e+00 0.0000000e+00 
6.1000000e+01 0.0000000e+00 1.0000000e+01 
6.0000000e+01 0.0000000e+00 2.0000000e+00 
6.2000000e+01 1.0000000e+01 1.4000000e+01 
6.0000000e+01 3.0000000e+00 0.0000000e+00 
6.2000000e+01 9.0000000e+00 1.4000000e+01 
6.1000000e+01 0.0000000e+00 9.0000000e+00 
6.2000000e+01 8.0000000e+00 1.4000000e+01 
6.2000000e+01 7.0000000e+00 1.4000000e+01 
6.1000000e+01 0.0000000e+00 8.0000000e+00 
6.0000000e+01 2.0000000e+00 0.0000000e+00 
6.2000000e+01 6.0000000e+00 1.4000000e+01 
6.2000000e+01 5.0000000e+00 1.4000000e+01 
6.0000000e+01 0.0000000e+00 1.0000000e+00 
6.1000000e+01 0.0000000e+00 7.0000000e+00 
6.0000000e+01 1.0000000e+00 0.0000000e+00 
6.2000000e+01 4.0000000e+00 1.4000000e+01 
6.1000000e+01 0.0000000e+00 6.0000000e+00 
6.2000000e+01 3.0000000e+00 1.4000000e+01 
6.0000000e+01 0.0000000e+00 0.0000000e+00 
6.1000000e+01 0.0000000e+00 5.0000000e+00 
6.2000000e+01 2.0000000e+00 1.4000000e+01 
6.1000000e+01 1.0000000e+01 0.0000000e+00 
6.1000000e+01 9.0000000e+00 0.0000000e+00 
6.1000000e+01 0.0000000e+00 4.0000000e+00 
6.1000000e+01 8.0000000e+00 0.0000000e+00 
6.2000000e+01 1.0000000e+00 1.4000000e+01 
6.1000000e+01 7.0000000e+00 0.0000000e+00 
6.1000000e+01 6.0000000e+00 0.0000000e+00 
6.1000000e+01 5.0000000e+00 0.0000000e+00 
6.1000000e+01 0.0000000e+00 3.0000000e+00 
6.2000000e+01 0.0000000e+00 1.4000000e+01 
6.2000000e+01 0.0000000e+00 1.3000000e+01 
6.2000000e+01 0.0000000e+00 1.2000000e+01 
6.2000000e+01 0.0000000e+00 1.1000000e+01 
6.1000000e+01 4.0000000e+00 0.0000000e+00 
6.2000000e+01 0.0000000e+00 1.0000000e+01 
6.1000000e+01 0.0000000e+00 2.0000000e+00 
6.1000000e+01 3.0000000e+00 0.0000000e+00 
6.3000000e+01 1.0000000e+01 1.4000000e+01 
6.2000000e+01 0.0000000e+00 9.0000000e+00 
6.3000000e+01 9.0000000e+00 1.4000000e+01 
6.3000000e+01 8.0000000e+00 1.4000000e+01 
6.3000000e+01 7.0000000e+00 1.4000000e+01 
6.2000000e+01 0.0000000e+00 8.0000000e+00 
6.1000000e+01 2.0000000e+00 0.0000000e+00 
6.3000000e+01 6.0000000e+00 1.4000000e+01 
6.1000000e+01 0.0000000e+00 1.0000000e+00 
6.2000000e+01 0.0000000e+00 7.0000000e+00 
6.3000000e+01 5.0000000e+00 1.4000000e+01 
6.1000000e+01 1.0000000e+00 0.0000000e+00 
6.3000000e+01 4.0000000e+00 1.4000000e+01 
6.2000000e+01 0.0000000e+00 6.0000000e+00 
6.1000000e+01 0.0000000e+00 0.0000000e+00 
6.3000000e+01 3.0000000e+00 1.4000000e+01 
6.2000000e+01 0.0000000e+00 5.0000000e+00 
6.3000000e+01 2.0000000e+00 1.4000000e+01 
6.2000000e+01 1.0000000e+01 0.0000000e+00 
6.2000000e+01 9.0000000e+00 0.0000000e+00 
6.2000000e+01 8.0000000e+00 0.0000000e+00 
6.2000000e+01 0.0000000e+00 4.0000000e+00 
6.2000000e+01 7.0000000e+00 0.0000000e+00 
6.3000000e+01 1.0000000e+00 1.4000000e+01 
6.2000000e+01 6.0000000e+00 0.0000000e+00 
6.2000000e+01 5.0000000e+00 0.0000000e+00 
6.2000000e+01 0.0000000e+00 3.0000000e+00 
6.3000000e+01 0.0000000e+00 1.4000000e+01 
6.3000000e+01 0.0000000e+00 1.3000000e+01 
6.3000000e+01 0.0000000e+00 1.2000000e+01 
6.2000000e+01 4.0000000e+00 0.0000000e+00 
6.3000000e+01 0.0000000e+00 1.1000000e+01 
6.3000000e+01 0.0000000e+00 1.0000000e+01 
6.2000000e+01 0.0000000e+00 2.0000000e+00 
6.2000000e+01 3.0000000e+00 0.0000000e+00 
6.3000000e+01 0.0000000e+00 9.0000000e+00 
6.4000000e+01 1.0000000e+01 1.4000000e+01 
6.4000000e+01 9.0000000e+00 1.4000000e+01 
6.4000000e+01 8.0000000e+00 1.4000000e+01 
6.2000000e+01 2.0000000e+00 0.0000000e+00 
6.3000000e+01 0.0000000e+00 8.0000000e+00 
6.4000000e+01 7.0000000e+00 1.4000000e+01 
6.4000000e+01 6.0000000e+00 1.4000000e+01 
6.2000000e+01 0.0000000e+00 1.0000000e+00 
6.3000000e+01 0.0000000e+00 7.0000000e+00 
6.4000000e+01 5.0000000e+00 1.4000000e+01 
6.2000000e+01 1.0000000e+00 0.0000000e+00 
6.4000000e+01 4.0000000e+00 1.4000000e+01 
6.3000000e+01 0.0000000e+00 6.0000000e+00 
6.2000000e+01 0.0000000e+00 0.0000000e+00 
6.4000000e+01 3.0000000e+00 1.4000000e+01 
6.3000000e+01 0.0000000e+00 5.0000000e+00 
6.4000000e+01 2.0000000e+00 1.4000000e+01 
6.3000000e+01 1.0000000e+01 0.0000000e+00 
6.3000000e+01 9.0000000e+00 0.0000000e+00 
6.3000000e+01 8.0000000e+00 0.0000000e+00 
6.3000000e+01 0.0000000e+00 4.0000000e+00 
6.3000000e+01 7.0000000e+00 0.0000000e+00 
6.4000000e+01 1.0000000e+00 1.4000000e+01 
6.3000000e+01 6.0000000e+00 0.0000000e+00 
6.3000000e+01 5.0000000e+00 0.0000000e+00 
6.3000000e+01 0.0000000e+00 3.0000000e+00 
6.4000000e+01 0.0000000e+00 1.4000000e+01 
6.4000000e+01 0.0000000e+00 1.3000000e+01 
6.4000000e+01 0.0000000e+00 1.2000000e+01 
6.3000000e+01 4.0000000e+00 0.0000000e+00 
6.4000000e+01 0.0000000e+00 1.1000000e+01 
6.4000000e+01 0.0000000e+00 1.0000000e+01 
6.3000000e+01 0.0000000e+00 2.0000000e+00 
6.3000000e+01 3.0000000e+00 0.0000000e+00 
6.4000000e+01 0.0000000e+00 9.0000000e+00 
6.5000000e+01 1.0000000e+01 1.4000000e+01 
6.5000000e+01 9.0000000e+00 1.4000000e+01 
6.3000000e+01 2.0000000e+00 0.0000000e+00 
6.5000000e+01 8.0000000e+00 1.4000000e+01 
6.4000000e+01 0.0000000e+00 8.0000000e+00 
6.5000000e+01 7.0000000e+00 1.4000000e+01 
6.3000000e+01 0.0000000e+00 1.0000000e+00 
6.5000000e+01 6.0000000e+00 1.4000000e+01 
6.4000000e+01 0.0000000e+00 7.0000000e+00 
6.3000000e+01 1.0000000e+00 0.0000000e+00 
6.5000000e+01 5.0000000e+00 1.4000000e+01 
6.4000000e+01 0.0000000e+00 6.0000000e+00 
6.5000000e+01 4.0000000e+00 1.4000000e+01 
6.3000000e+01 0.0000000e+00 0.0000000e+00 
6.5000000e+01 3.0000000e+00 1.4000000e+01 
6.4000000e+01 0.0000000e+00 5.0000000e+00 
6.5000000e+01 2.0000000e+00 1.4000000e+01 
6.4000000e+01 1.0000000e+01 0.0000000e+00 
6.4000000e+01 9.0000000e+00 0.0000000e+00 
6.4000000e+01 0.0000000e+00 4.0000000e+00 
6.4000000e+01 8.0000000e+00 0.0000000e+00 
6.4000000e+01 7.0000000e+00 0.0000000e+00 
6.5000000e+01 1.0000000e+00 1.4000000e+01 
6.4000000e+01 6.0000000e+00 0.0000000e+00 
6.4000000e+01 5.0000000e+00 0.0000000e+00 
6.4000000e+01 0.0000000e+00 3.0000000e+00 
6.5000000e+01 0.0000000e+00 1.4000000e+01 
6.5000000e+01 0.0000000e+00 1.3000000e+01 
6.4000000e+01 4.0000000e+00 0.0000000e+00 
6.5000000e+01 0.0000000e+00 1.2000000e+01 
6.5000000e+01 0.0000000e+00 1.1000000e+01 
6.4000000e+01 0.0000000e+00 2.0000000e+00 
6.4000000e+01 3.0000000e+00 0.0000000e+00 
6.5000000e+01 0.0000000e+00 1.0000000e+01 
6.5000000e+01 0.0000000e+00 9.0000000e+00 
6.4000000e+01 2.0000000e+00 0.0000000e+00 
6.6000000e+01 1.0000000e+01 1.4000000e+01 
6.6000000e+01 9.0000000e+00 1.4000000e+01 
6.6000000e+01 8.0000000e+00 1.4000000e+01 
6.5000000e+01 0.0000000e+00 8.0000000e+00 
6.4000000e+01 0.0000000e+00 1.0000000e+00 
6.6000000e+01 7.0000000e+00 1.4000000e+01 
6.6000000e+01 6.0000000e+00 1.4000000e+01 
6.4000000e+01 1.0000000e+00 0.0000000e+00 
6.5000000e+01 0.0000000e+00 7.0000000e+00 
6.6000000e+01 5.0000000e+00 1.4000000e+01 
6.5000000e+01 0.0000000e+00 6.0000000e+00 
6.6000000e+01 4.0000000e+00 1.4000000e+01 
6.4000000e+01 0.0000000e+00 0.0000000e+00 
6.6000000e+01 3.0000000e+00 1.4000000e+01 
6.5000000e+01 0.0000000e+00 5.0000000e+00 
6.6000000e+01 2.0000000e+00 1.4000000e+01 
6.5000000e+01 1.0000000e+01 0.0000000e+00 
6.5000000e+01 9.0000000e+00 0.0000000e+00 
6.5000000e+01 0.0000000e+00 4.0000000e+00 
6.5000000e+01 8.0000000e+00 0.0000000e+00 
6.5000000e+01 7.0000000e+00 0.0000000e+00 
6.5000000e+01 6.0000000e+00 0.0000000e+00 
6.6000000e+01 1.0000000e+00 1.4000000e+01 
6.5000000e+01 5.0000000e+00 0.0000000e+00 
6.5000000e+01 0.0000000e+00 3.0000000e+00 
6.6000000e+01 0.0000000e+00 1.4000000e+01 
6.5000000e+01 4.0000000e+00 0.0000000e+00 
6.6000000e+01 0.0000000e+00 1.3000000e+01 
6.6000000e+01 0.0000000e+00 1.2000000e+01 
6.6000000e+01 0.0000000e+00 1.1000000e+01 
6.5000000e+01 0.0000000e+00 2.0000000e+00 
6.5000000e+01 3.0000000e+00 0.0000000e+00 
6.6000000e+01 0.0000000e+00 1.0000000e+01 
6.6000000e+01 0.0000000e+00 9.0000000e+00 
6.5000000e+01 2.0000000e+00 0.0000000e+00 
6.7000000e+01 1.0000000e+01 1.4000000e+01 
6.7000000e+01 9.0000000e+00 1.4000000e+01 
6.6000000e+01 0.0000000e+00 8.0000000e+00 
6.7000000e+01 8.0000000e+00 1.4000000e+01 
6.5000000e+01 0.0000000e+00 1.0000000e+00 
6.7000000e+01 7.0000000e+00 1.4000000e+01 
6.5000000e+01 1.0000000e+00 0.0000000e+00 
6.7000000e+01 6.0000000e+00 1.4000000e+01 
6.6000000e+01 0.0000000e+00 7.0000000e+00 
6.7000000e+01 5.0000000e+00 1.4000000e+01 
6.6000000e+01 0.0000000e+00 6.0000000e+00 
6.5000000e+01 0.0000000e+00 0.0000000e+00 
6.7000000e+01 4.0000000e+00 1.4000000e+01 
6.6000000e+01 0.0000000e+00 5.0000000e+00 
6.7000000e+01 3.0000000e+00 1.4000000e+01 
6.6000000e+01 1.0000000e+01 0.0000000e+00 
6.6000000e+01 9.0000000e+00 0.0000000e+00 
6.7000000e+01 2.0000000e+00 1.4000000e+01 
6.6000000e+01 8.0000000e+00 0.0000000e+00 
6.6000000e+01 0.0000000e+00 4.0000000e+00 
6.6000000e+01 7.0000000e+00 0.0000000e+00 
6.6000000e+01 6.0000000e+00 0.0000000e+00 
6.7000000e+01 1.0000000e+00 1.4000000e+01 
6.6000000e+01 5.0000000e+00 0.0000000e+00 
6.6000000e+01 0.0000000e+00 3.0000000e+00 
6.6000000e+01 4.0000000e+00 0.0000000e+00 
6.7000000e+01 0.0000000e+00 1.4000000e+01 
6.7000000e+01 0.0000000e+00 1.3000000e+01 
6.7000000e+01 0.0000000e+00 1.2000000e+01 
6.7000000e+01 0.0000000e+00 1.1000000e+01 
6.6000000e+01 0.0000000e+00 2.0000000e+00 
6.6000000e+01 3.0000000e+00 0.0000000e+00 
6.7000000e+01 0.0000000e+00 1.0000000e+01 
6.7000000e+01 0.0000000e+00 9.0000000e+00 
6.6000000e+01 2.0000000e+00 0.0000000e+00 
6.8000000e+01 1.0000000e+01 1.4000000e+01 
6.6000000e+01 0.0000000e+00 1.0000000e+00 
6.7000000e+01 0.0000000e+00 8.0000000e+00 
6.8000000e+01 9.0000000e+00 1.4000000e+01 
6.8000000e+01 8.0000000e+00 1.4000000e+01 
6.6000000e+01 1.0000000e+00 0.0000000e+00 
6.8000000e+01 7.0000000e+00 1.4000000e+01 
6.7000000e+01 0.0000000e+00 7.0000000e+00 
6.8000000e+01 6.0000000e+00 1.4000000e+01 
6.8000000e+01 5.0000000e+00 1.4000000e+01 
6.6000000e+01 0.0000000e+00 0.0000000e+00 
6.7000000e+01 0.0000000e+00 6.0000000e+00 
6.8000000e+01 4.0000000e+00 1.4000000e+01 
6.7000000e+01 0.0000000e+00 5.0000000e+00 
6.8000000e+01 3.0000000e+00 1.4000000e+01 
6.7000000e+01 1.0000000e+01 0.0000000e+00 
6.7000000e+01 9.0000000e+00 0.0000000e+00 
6.8000000e+01 2.0000000e+00 1.4000000e+01 
6.7000000e+01 0.0000000e+00 4.0000000e+00 
6.7000000e+01 8.0000000e+00 0.0000000e+00 
6.7000000e+01 7.0000000e+00 0.0000000e+00 
6.7000000e+01 6.0000000e+00 0.0000000e+00 
6.8000000e+01 1.0000000e+00 1.4000000e+01 
6.7000000e+01 5.0000000e+00 0.0000000e+00 
6.7000000e+01 0.0000000e+00 3.0000000e+00 
6.7000000e+01 4.0000000e+00 0.0000000e+00 
6.8000000e+01 0.0000000e+00 1.4000000e+01 
6.8000000e+01 0.0000000e+00 1.3000000e+01 
6.8000000e+01 0.0000000e+00 1.2000000e+01 
6.7000000e+01 0.0000000e+00 2.0000000e+00 
6.8000000e+01 0.0000000e+00 1.1000000e+01 
6.7000000e+01 3.0000000e+00 0.0000000e+00 
6.8000000e+01 0.0000000e+00 1.0000000e+01 
6.7000000e+01 2.0000000e+00 0.0000000e+00 
6.8000000e+01 0.0000000e+00 9.0000000e+00 
6.7000000e+01 0.0000000e+00 1.0000000e+00 
6.8000000e+01 0.0000000e+00 8.0000000e+00 
6.9000000e+01 1.0000000e+01 1.4000000e+01 
6.9000000e+01 9.0000000e+00 1.4000000e+01 
6.9000000e+01 8.0000000e+00 1.4000000e+01 
6.7000000e+01 1.0000000e+00 0.0000000e+00 
6.9000000e+01 7.0000000e+00 1.4000000e+01 
6.8000000e+01 0.0000000e+00 7.0000000e+00 
6.9000000e+01 6.0000000e+00 1.4000000e+01 
6.7000000e+01 0.0000000e+00 0.0000000e+00 
6.9000000e+01 5.0000000e+00 1.4000000e+01 
6.8000000e+01 0.0000000e+00 6.0000000e+00 
6.9000000e+01 4.0000000e+00 1.4000000e+01 
6.8000000e+01 0.0000000e+00 5.0000000e+00 
6.9000000e+01 3.0000000e+00 1.4000000e+01 
6.8000000e+01 1.0000000e+01 0.0000000e+00 
6.8000000e+01 9.0000000e+00 0.0000000e+00 
6.8000000e+01 8.0000000e+00 0.0000000e+00 
6.8000000e+01 0.0000000e+00 4.0000000e+00 
6.9000000e+01 2.0000000e+00 1.4000000e+01 
6.8000000e+01 7.0000000e+00 0.0000000e+00 
6.8000000e+01 6.0000000e+00 0.0000000e+00 
6.9000000e+01 1.0000000e+00 1.4000000e+01 
6.8000000e+01 5.0000000e+00 0.0000000e+00 
6.8000000e+01 0.0000000e+00 3.0000000e+00 
6.8000000e+01 4.0000000e+00 0.0000000e+00 
6.9000000e+01 0.0000000e+00 1.4000000e+01 
6.9000000e+01 0.0000000e+00 1.3000000e+01 
6.9000000e+01 0.0000000e+00 1.2000000e+01 
6.8000000e+01 0.0000000e+00 2.0000000e+00 
6.8000000e+01 3.0000000e+00 0.0000000e+00 
6.9000000e+01 0.0000000e+00 1.1000000e+01 
6.9000000e+01 0.0000000e+00 1.0000000e+01 
6.8000000e+01 2.0000000e+00 0.0000000e+00 
6.9000000e+01 0.0000000e+00 9.0000000e+00 
6.8000000e+01 0.0000000e+00 1.0000000e+00 
6.9000000e+01 0.0000000e+00 8.0000000e+00 
7.0000000e+01 1.0000000e+01 1.4000000e+01 
6.8000000e+01 1.0000000e+00 0.0000000e+00 
7.0000000e+01 9.0000000e+00 1.4000000e+01 
7.0000000e+01 8.0000000e+00 1.4000000e+01 
7.0000000e+01 7.0000000e+00 1.4000000e+01 
6.9000000e+01 0.0000000e+00 7.0000000e+00 
7.0000000e+01 6.0000000e+00 1.4000000e+01 
6.8000000e+01 0.0000000e+00 0.0000000e+00 
7.0000000e+01 5.0000000e+00 1.4000000e+01 
6.9000000e+01 0.0000000e+00 6.0000000e+00 
7.0000000e+01 4.0000000e+00 1.4000000e+01 
6.9000000e+01 0.0000000e+00 5.0000000e+00 
7.0000000e+01 3.0000000e+00 1.4000000e+01 
6.9000000e+01 1.0000000e+01 0.0000000e+00 
6.9000000e+01 9.0000000e+00 0.0000000e+00 
6.9000000e+01 8.0000000e+00 0.0000000e+00 
6.9000000e+01 0.0000000e+00 4.0000000e+00 
7.0000000e+01 2.0000000e+00 1.4000000e+01 
6.9000000e+01 7.0000000e+00 0.0000000e+00 
6.9000000e+01 6.0000000e+00 0.0000000e+00 
7.0000000e+01 1.0000000e+00 1.4000000e+01 
6.9000000e+01 5.0000000e+00 0.0000000e+00 
6.9000000e+01 0.0000000e+00 3.0000000e+00 
6.9000000e+01 4.0000000e+00 0.0000000e+00 
7.0000000e+01 0.0000000e+00 1.4000000e+01 
7.0000000e+01 0.0000000e+00 1.3000000e+01 
7.0000000e+01 0.0000000e+00 1.2000000e+01 
6.9000000e+01 0.0000000e+00 2.0000000e+00 
6.9000000e+01 3.0000000e+00 0.0000000e+00 
7.0000000e+01 0.0000000e+00 1.1000000e+01 
7.0000000e+01 0.0000000e+00 1.0000000e+01 
6.9000000e+01 2.0000000e+00 0.0000000e+00 
7.0000000e+01 0.0000000e+00 9.0000000e+00 
6.9000000e+01 0.0000000e+00 1.0000000e+00 
7.0000000e+01 0.0000000e+00 8.0000000e+00 
6.9000000e+01 1.0000000e+00 0.0000000e+00 
7.1000000e+01 1.0000000e+01 1.4000000e+01 
7.1000000e+01 9.0000000e+00 1.4000000e+01 
7.1000000e+01 8.0000000e+00 1.4000000e+01 
7.0000000e+01 0.0000000e+00 7.0000000e+00 
7.1000000e+01 7.0000000e+00 1.4000000e+01 
6.9000000e+01 0.0000000e+00 0.0000000e+00 
7.1000000e+01 6.0000000e+00 1.4000000e+01 
7.0000000e+01 0.0000000e+00 6.0000000e+00 
7.1000000e+01 5.0000000e+00 1.4000000e+01 
7.1000000e+01 4.0000000e+00 1.4000000e+01 
7.0000000e+01 0.0000000e+00 5.0000000e+00 
7.1000000e+01 3.0000000e+00 1.4000000e+01 
7.0000000e+01 1.0000000e+01 0.0000000e+00 
7.0000000e+01 9.0000000e+00 0.0000000e+00 
7.0000000e+01 0.0000000e+00 4.0000000e+00 
7.0000000e+01 8.0000000e+00 0.0000000e+00 
7.0000000e+01 7.0000000e+00 0.0000000e+00 
7.1000000e+01 2.0000000e+00 1.4000000e+01 
7.0000000e+01 6.0000000e+00 0.0000000e+00 
7.0000000e+01 5.0000000e+00 0.0000000e+00 
7.0000000e+01 0.0000000e+00 3.0000000e+00 
7.1000000e+01 1.0000000e+00 1.4000000e+01 
7.0000000e+01 4.0000000e+00 0.0000000e+00 
7.1000000e+01 0.0000000e+00 1.4000000e+01 
7.1000000e+01 0.0000000e+00 1.3000000e+01 
7.0000000e+01 0.0000000e+00 2.0000000e+00 
7.1000000e+01 0.0000000e+00 1.2000000e+01 
7.0000000e+01 3.0000000e+00 0.0000000e+00 
7.1000000e+01 0.0000000e+00 1.1000000e+01 
7.1000000e+01 0.0000000e+00 1.0000000e+01 
7.0000000e+01 2.0000000e+00 0.0000000e+00 
7.1000000e+01 0.0000000e+00 9.0000000e+00 
7.0000000e+01 0.0000000e+00 1.0000000e+00 
7.1000000e+01 0.0000000e+00 8.0000000e+00 
7.0000000e+01 1.0000000e+00 0.0000000e+00 
7.2000000e+01 1.0000000e+01 1.4000000e+01 
7.2000000e+01 9.0000000e+00 1.4000000e+01 
7.2000000e+01 8.0000000e+00 1.4000000e+01 
7.1000000e+01 0.0000000e+00 7.0000000e+00 
7.2000000e+01 7.0000000e+00 1.4000000e+01 
7.0000000e+01 0.0000000e+00 0.0000000e+00 
7.2000000e+01 6.0000000e+00 1.4000000e+01 
7.1000000e+01 0.0000000e+00 6.0000000e+00 
7.2000000e+01 5.0000000e+00 1.4000000e+01 
7.2000000e+01 4.0000000e+00 1.4000000e+01 
7.1000000e+01 0.0000000e+00 5.0000000e+00 
7.2000000e+01 3.0000000e+00 1.4000000e+01 
7.1000000e+01 1.0000000e+01 0.0000000e+00 
7.1000000e+01 9.0000000e+00 0.0000000e+00 
7.1000000e+01 8.0000000e+00 0.0000000e+00 
7.1000000e+01 0.0000000e+00 4.0000000e+00 
7.1000000e+01 7.0000000e+00 0.0000000e+00 
7.2000000e+01 2.0000000e+00 1.4000000e+01 
7.1000000e+01 6.0000000e+00 0.0000000e+00 
7.1000000e+01 5.0000000e+00 0.0000000e+00 
7.1000000e+01 0.0000000e+00 3.0000000e+00 
7.2000000e+01 1.0000000e+00 1.4000000e+01 
7.1000000e+01 4.0000000e+00 0.0000000e+00 
7.2000000e+01 0.0000000e+00 1.4000000e+01 
7.2000000e+01 0.0000000e+00 1.3000000e+01 
7.1000000e+01 0.0000000e+00 2.0000000e+00 
7.1000000e+01 3.0000000e+00 0.0000000e+00 
7.2000000e+01 0.0000000e+00 1.2000000e+01 
7.2000000e+01 0.0000000e+00 1.1000000e+01 
7.2000000e+01 0.0000000e+00 1.0000000e+01 
7.1000000e+01 2.0000000e+00 0.0000000e+00 
7.2000000e+01 0.0000000e+00 9.0000000e+00 
7.1000000e+01 0.0000000e+00 1.0000000e+00 
7.1000000e+01 1.0000000e+00 0.0000000e+00 
7.2000000e+01 0.0000000e+00 8.0000000e+00 
7.3000000e+01 1.0000000e+01 1.4000000e+01 
7.3000000e+01 9.0000000e+00 1.4000000e+01 
7.2000000e+01 0.0000000e+00 7.0000000e+00 
7.3000000e+01 8.0000000e+00 1.4000000e+01 
7.1000000e+01 0.0000000e+00 0.0000000e+00 
7.3000000e+01 7.0000000e+00 1.4000000e+01 
7.3000000e+01 6.0000000e+00 1.4000000e+01 
7.2000000e+01 0.0000000e+00 6.0000000e+00 
7.3000000e+01 5.0000000e+00 1.4000000e+01 
7.2000000e+01 0.0000000e+00 5.0000000e+00 
7.3000000e+01 4.0000000e+00 1.4000000e+01 
7.3000000e+01 3.0000000e+00 1.4000000e+01 
7.2000000e+01 1.0000000e+01 0.0000000e+00 
7.2000000e+01 9.0000000e+00 0.0000000e+00 
7.2000000e+01 8.0000000e+00 0.0000000e+00 
7.2000000e+01 0.0000000e+00 4.0000000e+00 
7.2000000e+01 7.0000000e+00 0.0000000e+00 
7.3000000e+01 2.0000000e+00 1.4000000e+01 
7.2000000e+01 6.0000000e+00 0.0000000e+00 
7.2000000e+01 5.0000000e+00 0.0000000e+00 
7.2000000e+01 0.0000000e+00 3.0000000e+00 
7.3000000e+01 1.0000000e+00 1.4000000e+01 
7.2000000e+01 4.0000000e+00 0.0000000e+00 
7.2000000e+01 0.0000000e+00 2.0000000e+00 
7.3000000e+01 0.0000000e+00 1.4000000e+01 
7.2000000e+01 3.0000000e+00 0.0000000e+00 
7.3000000e+01 0.0000000e+00 1.3000000e+01 
7.3000000e+01 0.0000000e+00 1.2000000e+01 
7.3000000e+01 0.0000000e+00 1.1000000e+01 
7.2000000e+01 2.0000000e+00 0.0000000e+00 
7.3000000e+01 0.0000000e+00 1.0000000e+01 
7.2000000e+01 0.0000000e+00 1.0000000e+00 
7.3000000e+01 0.0000000e+00 9.0000000e+00 
7.2000000e+01 1.0000000e+00 0.0000000e+00 
7.3000000e+01 0.0000000e+00 8.0000000e+00 
7.4000000e+01 1.0000000e+01 1.4000000e+01 
7.4000000e+01 9.0000000e+00 1.4000000e+01 
7.3000000e+01 0.0000000e+00 7.0000000e+00 
7.2000000e+01 0.0000000e+00 0.0000000e+00 
7.4000000e+01 8.0000000e+00 1.4000000e+01 
7.4000000e+01 7.0000000e+00 1.4000000e+01 
7.4000000e+01 6.0000000e+00 1.4000000e+01 
7.3000000e+01 0.0000000e+00 6.0000000e+00 
7.4000000e+01 5.0000000e+00 1.4000000e+01 
7.3000000e+01 0.0000000e+00 5.0000000e+00 
7.4000000e+01 4.0000000e+00 1.4000000e+01 
7.3000000e+01 1.0000000e+01 0.0000000e+00 
7.4000000e+01 3.0000000e+00 1.4000000e+01 
7.3000000e+01 9.0000000e+00 0.0000000e+00 
7.3000000e+01 8.0000000e+00 0.0000000e+00 
7.3000000e+01 0.0000000e+00 4.0000000e+00 
7.3000000e+01 7.0000000e+00 0.0000000e+00 
7.4000000e+01 2.0000000e+00 1.4000000e+01 
7.3000000e+01 6.0000000e+00 0.0000000e+00 
7.3000000e+01 5.0000000e+00 0.0000000e+00 
7.3000000e+01 0.0000000e+00 3.0000000e+00 
7.4000000e+01 1.0000000e+00 1.4000000e+01 
7.3000000e+01 4.0000000e+00 0.0000000e+00 
7.3000000e+01 0.0000000e+00 2.0000000e+00 
7.3000000e+01 3.0000000e+00 0.0000000e+00 
7.4000000e+01 0.0000000e+00 1.4000000e+01 
7.4000000e+01 0.0000000e+00 1.3000000e+01 
7.4000000e+01 0.0000000e+00 1.2000000e+01 
7.4000000e+01 0.0000000e+00 1.1000000e+01 
7.3000000e+01 2.0000000e+00 0.0000000e+00 
7.4000000e+01 0.0000000e+00 1.0000000e+01 
7.3000000e+01 0.0000000e+00 1.0000000e+00 
7.4000000e+01 0.0000000e+00 9.0000000e+00 
7.3000000e+01 1.0000000e+00 0.0000000e+00 
7.4000000e+01 0.0000000e+00 8.0000000e+00 
7.3000000e+01 0.0000000e+00 0.0000000e+00 
7.4000000e+01 0.0000000e+00 7.0000000e+00 
7.5000000e+01 1.0000000e+01 1.4000000e+01 
7.5000000e+01 9.0000000e+00 1.4000000e+01 
7.5000000e+01 8.0000000e+00 1.4000000e+01 
7.5000000e+01 7.0000000e+00 1.4000000e+01 
7.4000000e+01 0.0000000e+00 6.0000000e+00 
7.5000000e+01 6.0000000e+00 1.4000000e+01 
7.5000000e+01 5.0000000e+00 1.4000000e+01 
7.4000000e+01 0.0000000e+00 5.0000000e+00 
7.5000000e+01 4.0000000e+00 1.4000000e+01 
7.4000000e+01 1.0000000e+01 0.0000000e+00 
7.4000000e+01 9.0000000e+00 0.0000000e+00 
7.5000000e+01 3.0000000e+00 1.4000000e+01 
7.4000000e+01 8.0000000e+00 0.0000000e+00 
7.4000000e+01 0.0000000e+00 4.0000000e+00 
7.4000000e+01 7.0000000e+00 0.0000000e+00 
7.4000000e+01 6.0000000e+00 0.0000000e+00 
7.5000000e+01 2.0000000e+00 1.4000000e+01 
7.4000000e+01 5.0000000e+00 0.0000000e+00 
7.4000000e+01 0.0000000e+00 3.0000000e+00 
7.5000000e+01 1.0000000e+00 1.4000000e+01 
7.4000000e+01 4.0000000e+00 0.0000000e+00 
7.4000000e+01 0.0000000e+00 2.0000000e+00 
7.4000000e+01 3.0000000e+00 0.0000000e+00 
7.5000000e+01 0.0000000e+00 1.4000000e+01 
7.5000000e+01 0.0000000e+00 1.3000000e+01 
7.5000000e+01 0.0000000e+00 1.2000000e+01 
7.5000000e+01 0.0000000e+00 1.1000000e+01 
7.4000000e+01 2.0000000e+00 0.0000000e+00 
7.5000000e+01 0.0000000e+00 1.0000000e+01 
7.4000000e+01 0.0000000e+00 1.0000000e+00 
7.5000000e+01 0.0000000e+00 9.0000000e+00 
7.4000000e+01 1.0000000e+00 0.0000000e+00 
7.5000000e+01 0.0000000e+00 8.0000000e+00 
7.4000000e+01 0.0000000e+00 0.0000000e+00 
7.5000000e+01 0.0000000e+00 7.0000000e+00 
7.6000000e+01 1.0000000e+01 1.4000000e+01 
7.6000000e+01 9.0000000e+00 1.4000000e+01 
7.6000000e+01 8.0000000e+00 1.4000000e+01 
7.6000000e+01 7.0000000e+00 1.4000000e+01 
7.5000000e+01 0.0000000e+00 6.0000000e+00 
7.6000000e+01 6.0000000e+00 1.4000000e+01 
7.6000000e+01 5.0000000e+00 1.4000000e+01 
7.5000000e+01 0.0000000e+00 5.0000000e+00 
7.6000000e+01 4.0000000e+00 1.4000000e+01 
7.5000000e+01 1.0000000e+01 0.0000000e+00 
7.5000000e+01 9.0000000e+00 0.0000000e+00 
7.5000000e+01 0.0000000e+00 4.0000000e+00 
7.5000000e+01 8.0000000e+00 0.0000000e+00 
7.6000000e+01 3.0000000e+00 1.4000000e+01 
7.5000000e+01 7.0000000e+00 0.0000000e+00 
7.5000000e+01 6.0000000e+00 0.0000000e+00 
7.6000000e+01 2.0000000e+00 1.4000000e+01 
7.5000000e+01 5.0000000e+00 0.0000000e+00 
7.5000000e+01 0.0000000e+00 3.0000000e+00 
7.5000000e+01 4.0000000e+00 0.0000000e+00 
7.6000000e+01 1.0000000e+00 1.4000000e+01 
7.5000000e+01 0.0000000e+00 2.0000000e+00 
7.5000000e+01 3.0000000e+00 0.0000000e+00 
7.6000000e+01 0.0000000e+00 1.4000000e+01 
7.6000000e+01 0.0000000e+00 1.3000000e+01 
7.6000000e+01 0.0000000e+00 1.2000000e+01 
7.5000000e+01 2.0000000e+00 0.0000000e+00 
7.6000000e+01 0.0000000e+00 1.1000000e+01 
7.6000000e+01 0.0000000e+00 1.0000000e+01 
7.5000000e+01 0.0000000e+00 1.0000000e+00 
7.6000000e+01 0.0000000e+00 9.0000000e+00 
7.5000000e+01 1.0000000e+00 0.0000000e+00 
7.6000000e+01 0.0000000e+00 8.0000000e+00 
7.5000000e+01 0.0000000e+00 0.0000000e+00 
7.6000000e+01 0.0000000e+00 7.0000000e+00 
7.7000000e+01 1.0000000e+01 1.4000000e+01 
7.7000000e+01 9.0000000e+00 1.4000000e+01 
7.7000000e+01 8.0000000e+00 1.4000000e+01 
7.7000000e+01 7.0000000e+00 1.4000000e+01 
7.6000000e+01 0.0000000e+00 6.0000000e+00 
7.7000000e+01 6.0000000e+00 1.4000000e+01 
7.7000000e+01 5.0000000e+00 1.4000000e+01 
7.6000000e+01 0.0000000e+00 5.0000000e+00 
7.7000000e+01 4.0000000e+00 1.4000000e+01 
7.6000000e+01 1.0000000e+01 0.0000000e+00 
7.6000000e+01 9.0000000e+00 0.0000000e+00 
7.6000000e+01 8.0000000e+00 0.0000000e+00 
7.6000000e+01 0.0000000e+00 4.0000000e+00 
7.7000000e+01 3.0000000e+00 1.4000000e+01 
7.6000000e+01 7.0000000e+00 0.0000000e+00 
7.6000000e+01 6.0000000e+00 0.0000000e+00 
7.7000000e+01 2.0000000e+00 1.4000000e+01 
7.6000000e+01 5.0000000e+00 0.0000000e+00 
7.6000000e+01 0.0000000e+00 3.0000000e+00 
7.6000000e+01 4.0000000e+00 0.0000000e+00 
7.7000000e+01 1.0000000e+00 1.4000000e+01 
7.6000000e+01 0.0000000e+00 2.0000000e+00 
7.6000000e+01 3.0000000e+00 0.0000000e+00 
7.7000000e+01 0.0000000e+00 1.4000000e+01 
7.7000000e+01 0.0000000e+00 1.3000000e+01 
7.7000000e+01 0.0000000e+00 1.2000000e+01 
7.6000000e+01 2.0000000e+00 0.0000000e+00 
7.7000000e+01 0.0000000e+00 1.1000000e+01 
7.6000000e+01 0.0000000e+00 1.0000000e+00 
7.7000000e+01 0.0000000e+00 1.0000000e+01 
7.6000000e+01 1.0000000e+00 0.0000000e+00 
7.7000000e+01 0.0000000e+00 9.0000000e+00 
7.7000000e+01 0.0000000e+00 8.0000000e+00 
7.6000000e+01 0.0000000e+00 0.0000000e+00 
7.7000000e+01 0.0000000e+00 7.0000000e+00 
7.8000000e+01 1.0000000e+01 1.4000000e+01 
7.8000000e+01 9.0000000e+00 1.4000000e+01 
7.8000000e+01 8.0000000e+00 1.4000000e+01 
7.7000000e+01 0.0000000e+00 6.0000000e+00 
7.8000000e+01 7.0000000e+00 1.4000000e+01 
7.8000000e+01 6.0000000e+00 1.4000000e+01 
7.8000000e+01 5.0000000e+00 1.4000000e+01 
7.7000000e+01 0.0000000e+00 5.0000000e+00 
7.8000000e+01 4.0000000e+00 1.4000000e+01 
7.7000000e+01 1.0000000e+01 0.0000000e+00 
7.7000000e+01 9.0000000e+00 0.0000000e+00 
7.7000000e+01 0.0000000e+00 4.0000000e+00 
7.7000000e+01 8.0000000e+00 0.0000000e+00 
7.8000000e+01 3.0000000e+00 1.4000000e+01 
7.7000000e+01 7.0000000e+00 0.0000000e+00 
7.7000000e+01 6.0000000e+00 0.0000000e+00 
7.8000000e+01 2.0000000e+00 1.4000000e+01 
7.7000000e+01 0.0000000e+00 3.0000000e+00 
7.7000000e+01 5.0000000e+00 0.0000000e+00 
7.7000000e+01 4.0000000e+00 0.0000000e+00 
7.8000000e+01 1.0000000e+00 1.4000000e+01 
7.7000000e+01 0.0000000e+00 2.0000000e+00 
7.7000000e+01 3.0000000e+00 0.0000000e+00 
7.8000000e+01 0.0000000e+00 1.4000000e+01 
7.8000000e+01 0.0000000e+00 1.3000000e+01 
7.8000000e+01 0.0000000e+00 1.2000000e+01 
7.7000000e+01 2.0000000e+00 0.0000000e+00 
7.8000000e+01 0.0000000e+00 1.1000000e+01 
7.7000000e+01 0.0000000e+00 1.0000000e+00 
7.8000000e+01 0.0000000e+00 1.0000000e+01 
7.7000000e+01 1.0000000e+00 0.0000000e+00 
7.8000000e+01 0.0000000e+00 9.0000000e+00 
7.8000000e+01 0.0000000e+00 8.0000000e+00 
7.7000000e+01 0.0000000e+00 0.0000000e+00 
7.8000000e+01 0.0000000e+00 7.0000000e+00 
7.9000000e+01 1.0000000e+01 1.4000000e+01 
7.9000000e+01 9.0000000e+00 1.4000000e+01 
7.9000000e+01 8.0000000e+00 1.4000000e+01 
7.8000000e+01 0.0000000e+00 6.0000000e+00 
7.9000000e+01 7.0000000e+00 1.4000000e+01 
7.9000000e+01 6.0000000e+00 1.4000000e+01 
7.8000000e+01 0.0000000e+00 5.0000000e+00 
7.9000000e+01 5.0000000e+00 1.4000000e+01 
7.9000000e+01 4.0000000e+00 1.4000000e+01 
7.8000000e+01 1.0000000e+01 0.0000000e+00 
7.8000000e+01 9.0000000e+00 0.0000000e+00 
7.8000000e+01 8.0000000e+00 0.0000000e+00 
7.8000000e+01 0.0000000e+00 4.0000000e+00 
7.8000000e+01 7.0000000e+00 0.0000000e+00 
7.9000000e+01 3.0000000e+00 1.4000000e+01 
7.8000000e+01 6.0000000e+00 0.0000000e+00 
7.8000000e+01 5.0000000e+00 0.0000000e+00 
7.8000000e+01 0.0000000e+00 3.0000000e+00 
7.9000000e+01 2.0000000e+00 1.4000000e+01 
7.8000000e+01 4.0000000e+00 0.0000000e+00 
7.9000000e+01 1.0000000e+00 1.4000000e+01 
7.8000000e+01 0.0000000e+00 2.0000000e+00 
7.8000000e+01 3.0000000e+00 0.0000000e+00 
7.9000000e+01 0.0000000e+00 1.4000000e+01 
7.9000000e+01 0.0000000e+00 1.3000000e+01 
7.8000000e+01 2.0000000e+00 0.0000000e+00 
7.9000000e+01 0.0000000e+00 1.2000000e+01 
7.9000000e+01 0.0000000e+00 1.1000000e+01 
7.8000000e+01 0.0000000e+00 1.0000000e+00 
7.9000000e+01 0.0000000e+00 1.0000000e+01 
7.8000000e+01 1.0000000e+00 0.0000000e+00 
7.9000000e+01 0.0000000e+00 9.0000000e+00 
7.9000000e+01 0.0000000e+00 8.0000000e+00 
7.8000000e+01 0.0000000e+00 0.0000000e+00 
7.9000000e+01 0.0000000e+00 7.0000000e+00 
8.0000000e+01 1.0000000e+01 1.4000000e+01 
8.0000000e+01 9.0000000e+00 1.4000000e+01 
8.0000000e+01 8.0000000e+00 1.4000000e+01 
7.9000000e+01 0.0000000e+00 6.0000000e+00 
8.0000000e+01 7.0000000e+00 1.4000000e+01 
8.0000000e+01 6.0000000e+00 1.4000000e+01 
7.9000000e+01 0.0000000e+00 5.0000000e+00 
8.0000000e+01 5.0000000e+00 1.4000000e+01 
8.0000000e+01 4.0000000e+00 1.4000000e+01 
7.9000000e+01 1.0000000e+01 0.0000000e+00 
7.9000000e+01 9.0000000e+00 0.0000000e+00 
7.9000000e+01 0.0000000e+00 4.0000000e+00 
7.9000000e+01 8.0000000e+00 0.0000000e+00 
7.9000000e+01 7.0000000e+00 0.0000000e+00 
8.0000000e+01 3.0000000e+00 1.4000000e+01 
7.9000000e+01 6.0000000e+00 0.0000000e+00 
7.9000000e+01 5.0000000e+00 0.0000000e+00 
7.9000000e+01 0.0000000e+00 3.0000000e+00 
8.0000000e+01 2.0000000e+00 1.4000000e+01 
7.9000000e+01 4.0000000e+00 0.0000000e+00 
8.0000000e+01 1.0000000e+00 1.4000000e+01 
7.9000000e+01 0.0000000e+00 2.0000000e+00 
7.9000000e+01 3.0000000e+00 0.0000000e+00 
8.0000000e+01 0.0000000e+00 1.4000000e+01 
7.9000000e+01 2.0000000e+00 0.0000000e+00 
8.0000000e+01 0.0000000e+00 1.3000000e+01 
8.0000000e+01 0.0000000e+00 1.2000000e+01 
8.0000000e+01 0.0000000e+00 1.1000000e+01 
7.9000000e+01 0.0000000e+00 1.0000000e+00 
8.0000000e+01 0.0000000e+00 1.0000000e+01 
7.9000000e+01 1.0000000e+00 0.0000000e+00 
8.0000000e+01 0.0000000e+00 9.0000000e+00 
8.0000000e+01 0.0000000e+00 8.0000000e+00 
7.9000000e+01 0.0000000e+00 0.0000000e+00 
8.0000000e+01 0.0000000e+00 7.0000000e+00 
8.1000000e+01 1.0000000e+01 1.4000000e+01 
8.1000000e+01 9.0000000e+00 1.4000000e+01 
8.0000000e+01 0.0000000e+00 6.0000000e+00 
8.1000000e+01 8.0000000e+00 1.4000000e+01 
8.1000000e+01 7.0000000e+00 1.4000000e+01 
8.1000000e+01 6.0000000e+00 1.4000000e+01 
8.0000000e+01 0.0000000e+00 5.0000000e+00 
8.1000000e+01 5.0000000e+00 1.4000000e+01 
8.0000000e+01 1.0000000e+01 0.0000000e+00 
8.0000000e+01 9.0000000e+00 0.0000000e+00 
8.1000000e+01 4.0000000e+00 1.4000000e+01 
8.0000000e+01 8.0000000e+00 0.0000000e+00 
8.0000000e+01 0.0000000e+00 4.0000000e+00 
8.0000000e+01 7.0000000e+00 0.0000000e+00 
8.1000000e+01 3.0000000e+00 1.4000000e+01 
8.0000000e+01 6.0000000e+00 0.0000000e+00 
8.0000000e+01 5.0000000e+00 0.0000000e+00 
8.0000000e+01 0.0000000e+00 3.0000000e+00 
8.1000000e+01 2.0000000e+00 1.4000000e+01 
8.0000000e+01 4.0000000e+00 0.0000000e+00 
8.1000000e+01 1.0000000e+00 1.4000000e+01 
8.0000000e+01 0.0000000e+00 2.0000000e+00 
8.0000000e+01 3.0000000e+00 0.0000000e+00 
8.0000000e+01 2.0000000e+00 0.0000000e+00 
8.1000000e+01 0.0000000e+00 1.4000000e+01 
8.1000000e+01 0.0000000e+00 1.3000000e+01 
8.1000000e+01 0.0000000e+00 1.2000000e+01 
8.0000000e+01 0.0000000e+00 1.0000000e+00 
8.1000000e+01 0.0000000e+00 1.1000000e+01 
8.0000000e+01 1.0000000e+00 0.0000000e+00 
8.1000000e+01 0.0000000e+00 1.0000000e+01 
8.1000000e+01 0.0000000e+00 9.0000000e+00 
8.0000000e+01 0.0000000e+00 0.0000000e+00 
8.1000000e+01 0.0000000e+00 8.0000000e+00 
8.1000000e+01 0.0000000e+00 7.0000000e+00 
8.2000000e+01 1.0000000e+01 1.4000000e+01 
8.1000000e+01 0.0000000e+00 6.0000000e+00 
8.2000000e+01 9.0000000e+00 1.4000000e+01 
8.2000000e+01 8.0000000e+00 1.4000000e+01 
8.2000000e+01 7.0000000e+00 1.4000000e+01 
8.2000000e+01 6.0000000e+00 1.4000000e+01 
8.1000000e+01 0.0000000e+00 5.0000000e+00 
8.2000000e+01 5.0000000e+00 1.4000000e+01 
8.1000000e+01 1.0000000e+01 0.0000000e+00 
8.1000000e+01 9.0000000e+00 0.0000000e+00 
8.2000000e+01 4.0000000e+00 1.4000000e+01 
8.1000000e+01 0.0000000e+00 4.0000000e+00 
8.1000000e+01 8.0000000e+00 0.0000000e+00 
8.1000000e+01 7.0000000e+00 0.0000000e+00 
8.1000000e+01 6.0000000e+00 0.0000000e+00 
8.2000000e+01 3.0000000e+00 1.4000000e+01 
8.1000000e+01 5.0000000e+00 0.0000000e+00 
8.1000000e+01 0.0000000e+00 3.0000000e+00 
8.2000000e+01 2.0000000e+00 1.4000000e+01 
8.1000000e+01 4.0000000e+00 0.0000000e+00 
8.1000000e+01 0.0000000e+00 2.0000000e+00 
8.2000000e+01 1.0000000e+00 1.4000000e+01 
8.1000000e+01 3.0000000e+00 0.0000000e+00 
8.1000000e+01 2.0000000e+00 0.0000000e+00 
8.2000000e+01 0.0000000e+00 1.4000000e+01 
8.2000000e+01 0.0000000e+00 1.3000000e+01 
8.2000000e+01 0.0000000e+00 1.2000000e+01 
8.1000000e+01 0.0000000e+00 1.0000000e+00 
8.2000000e+01 0.0000000e+00 1.1000000e+01 
8.1000000e+01 1.0000000e+00 0.0000000e+00 
8.2000000e+01 0.0000000e+00 1.0000000e+01 
8.2000000e+01 0.0000000e+00 9.0000000e+00 
8.1000000e+01 0.0000000e+00 0.0000000e+00 
8.2000000e+01 0.0000000e+00 8.0000000e+00 
8.2000000e+01 0.0000000e+00 7.0000000e+00 
8.2000000e+01 0.0000000e+00 6.0000000e+00 
8.3000000e+01 1.0000000e+01 1.4000000e+01 
8.3000000e+01 9.0000000e+00 1.4000000e+01 
8.3000000e+01 8.0000000e+00 1.4000000e+01 
8.3000000e+01 7.0000000e+00 1.4000000e+01 
8.2000000e+01 0.0000000e+00 5.0000000e+00 
8.3000000e+01 6.0000000e+00 1.4000000e+01 
8.3000000e+01 5.0000000e+00 1.4000000e+01 
8.2000000e+01 1.0000000e+01 0.0000000e+00 
8.2000000e+01 9.0000000e+00 0.0000000e+00 
8.2000000e+01 8.0000000e+00 0.0000000e+00 
8.2000000e+01 0.0000000e+00 4.0000000e+00 
8.3000000e+01 4.0000000e+00 1.4000000e+01 
8.2000000e+01 7.0000000e+00 0.0000000e+00 
8.2000000e+01 6.0000000e+00 0.0000000e+00 
8.3000000e+01 3.0000000e+00 1.4000000e+01 
8.2000000e+01 5.0000000e+00 0.0000000e+00 
8.2000000e+01 0.0000000e+00 3.0000000e+00 
8.3000000e+01 2.0000000e+00 1.4000000e+01 
8.2000000e+01 4.0000000e+00 0.0000000e+00 
8.2000000e+01 0.0000000e+00 2.0000000e+00 
8.2000000e+01 3.0000000e+00 0.0000000e+00 
8.3000000e+01 1.0000000e+00 1.4000000e+01 
8.2000000e+01 2.0000000e+00 0.0000000e+00 
8.3000000e+01 0.0000000e+00 1.4000000e+01 
8.3000000e+01 0.0000000e+00 1.3000000e+01 
8.2000000e+01 0.0000000e+00 1.0000000e+00 
8.3000000e+01 0.0000000e+00 1.2000000e+01 
8.3000000e+01 0.0000000e+00 1.1000000e+01 
8.2000000e+01 1.0000000e+00 0.0000000e+00 
8.3000000e+01 0.0000000e+00 1.0000000e+01 
8.3000000e+01 0.0000000e+00 9.0000000e+00 
8.2000000e+01 0.0000000e+00 0.0000000e+00 
8.3000000e+01 0.0000000e+00 8.0000000e+00 
8.3000000e+01 0.0000000e+00 7.0000000e+00 
8.3000000e+01 0.0000000e+00 6.0000000e+00 
8.4000000e+01 1.0000000e+01 1.4000000e+01 
8.4000000e+01 9.0000000e+00 1.4000000e+01 
8.4000000e+01 8.0000000e+00 1.4000000e+01 
8.4000000e+01 7.0000000e+00 1.4000000e+01 
8.3000000e+01 0.0000000e+00 5.0000000e+00 
8.4000000e+01 6.0000000e+00 1.4000000e+01 
8.4000000e+01 5.0000000e+00 1.4000000e+01 
8.3000000e+01 1.0000000e+01 0.0000000e+00 
8.3000000e+01 9.0000000e+00 0.0000000e+00 
8.3000000e+01 0.0000000e+00 4.0000000e+00 
8.3000000e+01 8.0000000e+00 0.0000000e+00 
8.4000000e+01 4.0000000e+00 1.4000000e+01 
8.3000000e+01 7.0000000e+00 0.0000000e+00 
8.3000000e+01 6.0000000e+00 0.0000000e+00 
8.4000000e+01 3.0000000e+00 1.4000000e+01 
8.3000000e+01 5.0000000e+00 0.0000000e+00 
8.3000000e+01 0.0000000e+00 3.0000000e+00 
8.4000000e+01 2.0000000e+00 1.4000000e+01 
8.3000000e+01 4.0000000e+00 0.0000000e+00 
8.3000000e+01 0.0000000e+00 2.0000000e+00 
8.3000000e+01 3.0000000e+00 0.0000000e+00 
8.4000000e+01 1.0000000e+00 1.4000000e+01 
8.3000000e+01 2.0000000e+00 0.0000000e+00 
8.4000000e+01 0.0000000e+00 1.4000000e+01 
8.4000000e+01 0.0000000e+00 1.3000000e+01 
8.3000000e+01 0.0000000e+00 1.0000000e+00 
8.4000000e+01 0.0000000e+00 1.2000000e+01 
8.4000000e+01 0.0000000e+00 1.1000000e+01 
8.3000000e+01 1.0000000e+00 0.0000000e+00 
8.4000000e+01 0.0000000e+00 1.0000000e+01 
8.4000000e+01 0.0000000e+00 9.0000000e+00 
8.3000000e+01 0.0000000e+00 0.0000000e+00 
8.4000000e+01 0.0000000e+00 8.0000000e+00 
8.4000000e+01 0.0000000e+00 7.0000000e+00 
8.4000000e+01 0.0000000e+00 6.0000000e+00 
8.5000000e+01 1.0000000e+01 1.4000000e+01 
8.5000000e+01 9.0000000e+00 1.4000000e+01 
8.5000000e+01 8.0000000e+00 1.4000000e+01 
8.5000000e+01 7.0000000e+00 1.4000000e+01 
8.4000000e+01 0.0000000e+00 5.0000000e+00 
8.5000000e+01 6.0000000e+00 1.4000000e+01 
8.5000000e+01 5.0000000e+00 1.4000000e+01 
8.4000000e+01 1.0000000e+01 0.0000000e+00 
8.4000000e+01 9.0000000e+00 0.0000000e+00 
8.4000000e+01 0.0000000e+00 4.0000000e+00 
8.4000000e+01 8.0000000e+00 0.0000000e+00 
8.5000000e+01 4.0000000e+00 1.4000000e+01 
8.4000000e+01 7.0000000e+00 0.0000000e+00 
8.4000000e+01 6.0000000e+00 0.0000000e+00 
8.5000000e+01 3.0000000e+00 1.4000000e+01 
8.4000000e+01 0.0000000e+00 3.0000000e+00 
8.4000000e+01 5.0000000e+00 0.0000000e+00 
8.4000000e+01 4.0000000e+00 0.0000000e+00 
8.5000000e+01 2.0000000e+00 1.4000000e+01 
8.4000000e+01 0.0000000e+00 2.0000000e+00 
8.4000000e+01 3.0000000e+00 0.0000000e+00 
8.5000000e+01 1.0000000e+00 1.4000000e+01 
8.4000000e+01 2.0000000e+00 0.0000000e+00 
8.5000000e+01 0.0000000e+00 1.4000000e+01 
8.4000000e+01 0.0000000e+00 1.0000000e+00 
8.5000000e+01 0.0000000e+00 1.3000000e+01 
8.5000000e+01 0.0000000e+00 1.2000000e+01 
8.4000000e+01 1.0000000e+00 0.0000000e+00 
8.5000000e+01 0.0000000e+00 1.1000000e+01 
8.5000000e+01 0.0000000e+00 1.0000000e+01 
8.5000000e+01 0.0000000e+00 9.0000000e+00 
8.4000000e+01 0.0000000e+00 0.0000000e+00 
8.5000000e+01 0.0000000e+00 8.0000000e+00 
8.5000000e+01 0.0000000e+00 7.0000000e+00 
8.5000000e+01 0.0000000e+00 6.0000000e+00 
8.6000000e+01 1.0000000e+01 1.4000000e+01 
8.6000000e+01 9.0000000e+00 1.4000000e+01 
8.6000000e+01 8.0000000e+00 1.4000000e+01 
8.6000000e+01 7.0000000e+00 1.4000000e+01 
8.5000000e+01 0.0000000e+00 5.0000000e+00 
8.6000000e+01 6.0000000e+00 1.4000000e+01 
8.5000000e+01 1.0000000e+01 0.0000000e+00 
8.6000000e+01 5.0000000e+00 1.4000000e+01 
8.5000000e+01 9.0000000e+00 0.0000000e+00 
8.5000000e+01 8.0000000e+00 0.0000000e+00 
8.5000000e+01 0.0000000e+00 4.0000000e+00 
8.5000000e+01 7.0000000e+00 0.0000000e+00 
8.6000000e+01 4.0000000e+00 1.4000000e+01 
8.5000000e+01 6.0000000e+00 0.0000000e+00 
8.6000000e+01 3.0000000e+00 1.4000000e+01 
8.5000000e+01 5.0000000e+00 0.0000000e+00 
8.5000000e+01 0.0000000e+00 3.0000000e+00 
8.5000000e+01 4.0000000e+00 0.0000000e+00 
8.6000000e+01 2.0000000e+00 1.4000000e+01 
8.5000000e+01 0.0000000e+00 2.0000000e+00 
8.5000000e+01 3.0000000e+00 0.0000000e+00 
8.6000000e+01 1.0000000e+00 1.4000000e+01 
8.5000000e+01 2.0000000e+00 0.0000000e+00 
8.5000000e+01 0.0000000e+00 1.0000000e+00 
8.6000000e+01 0.0000000e+00 1.4000000e+01 
8.6000000e+01 0.0000000e+00 1.3000000e+01 
8.6000000e+01 0.0000000e+00 1.2000000e+01 
8.5000000e+01 1.0000000e+00 0.0000000e+00 
8.6000000e+01 0.0000000e+00 1.1000000e+01 
8.6000000e+01 0.0000000e+00 1.0000000e+01 
8.6000000e+01 0.0000000e+00 9.0000000e+00 
8.5000000e+01 0.0000000e+00 0.0000000e+00 
8.6000000e+01 0.0000000e+00 8.0000000e+00 
8.6000000e+01 0.0000000e+00 7.0000000e+00 
8.6000000e+01 0.0000000e+00 6.0000000e+00 
8.7000000e+01 1.0000000e+01 1.4000000e+01 
8.7000000e+01 9.0000000e+00 1.4000000e+01 
8.7000000e+01 8.0000000e+00 1.4000000e+01 
8.6000000e+01 0.0000000e+00 5.0000000e+00 
8.7000000e+01 7.0000000e+00 1.4000000e+01 
8.7000000e+01 6.0000000e+00 1.4000000e+01 
8.6000000e+01 1.0000000e+01 0.0000000e+00 
8.6000000e+01 9.0000000e+00 0.0000000e+00 
8.7000000e+01 5.0000000e+00 1.4000000e+01 
8.6000000e+01 8.0000000e+00 0.0000000e+00 
8.6000000e+01 0.0000000e+00 4.0000000e+00 
8.6000000e+01 7.0000000e+00 0.0000000e+00 
8.7000000e+01 4.0000000e+00 1.4000000e+01 
8.6000000e+01 6.0000000e+00 0.0000000e+00 
8.6000000e+01 5.0000000e+00 0.0000000e+00 
8.6000000e+01 0.0000000e+00 3.0000000e+00 
8.7000000e+01 3.0000000e+00 1.4000000e+01 
8.6000000e+01 4.0000000e+00 0.0000000e+00 
8.7000000e+01 2.0000000e+00 1.4000000e+01 
8.6000000e+01 0.0000000e+00 2.0000000e+00 
8.6000000e+01 3.0000000e+00 0.0000000e+00 
8.7000000e+01 1.0000000e+00 1.4000000e+01 
8.6000000e+01 2.0000000e+00 0.0000000e+00 
8.6000000e+01 0.0000000e+00 1.0000000e+00 
8.7000000e+01 0.0000000e+00 1.4000000e+01 
8.7000000e+01 0.0000000e+00 1.3000000e+01 
8.6000000e+01 1.0000000e+00 0.0000000e+00 
8.7000000e+01 0.0000000e+00 1.2000000e+01 
8.7000000e+01 0.0000000e+00 1.1000000e+01 
8.7000000e+01 0.0000000e+00 1.0000000e+01 
8.6000000e+01 0.0000000e+00 0.0000000e+00 
8.7000000e+01 0.0000000e+00 9.0000000e+00 
8.7000000e+01 0.0000000e+00 8.0000000e+00 
8.7000000e+01 0.0000000e+00 7.0000000e+00 
8.7000000e+01 0.0000000e+00 6.0000000e+00 
8.8000000e+01 1.0000000e+01 1.4000000e+01 
8.8000000e+01 9.0000000e+00 1.4000000e+01 
8.8000000e+01 8.0000000e+00 1.4000000e+01 
8.7000000e+01 0.0000000e+00 5.0000000e+00 
8.8000000e+01 7.0000000e+00 1.4000000e+01 
8.8000000e+01 6.0000000e+00 1.4000000e+01 
8.7000000e+01 1.0000000e+01 0.0000000e+00 
8.7000000e+01 9.0000000e+00 0.0000000e+00 
8.8000000e+01 5.0000000e+00 1.4000000e+01 
8.7000000e+01 8.0000000e+00 0.0000000e+00 
8.7000000e+01 0.0000000e+00 4.0000000e+00 
8.7000000e+01 7.0000000e+00 0.0000000e+00 
8.8000000e+01 4.0000000e+00 1.4000000e+01 
8.7000000e+01 6.0000000e+00 0.0000000e+00 
8.7000000e+01 5.0000000e+00 0.0000000e+00 
8.7000000e+01 0.0000000e+00 3.0000000e+00 
8.8000000e+01 3.0000000e+00 1.4000000e+01 
8.7000000e+01 4.0000000e+00 0.0000000e+00 
8.8000000e+01 2.0000000e+00 1.4000000e+01 
8.7000000e+01 0.0000000e+00 2.0000000e+00 
8.7000000e+01 3.0000000e+00 0.0000000e+00 
8.8000000e+01 1.0000000e+00 1.4000000e+01 
8.7000000e+01 2.0000000e+00 0.0000000e+00 
8.7000000e+01 0.0000000e+00 1.0000000e+00 
8.8000000e+01 0.0000000e+00 1.4000000e+01 
8.8000000e+01 0.0000000e+00 1.3000000e+01 
8.7000000e+01 1.0000000e+00 0.0000000e+00 
8.8000000e+01 0.0000000e+00 1.2000000e+01 
8.8000000e+01 0.0000000e+00 1.1000000e+01 
8.8000000e+01 0.0000000e+00 1.0000000e+01 
8.7000000e+01 0.0000000e+00 0.0000000e+00 
8.8000000e+01 0.0000000e+00 9.0000000e+00 
8.8000000e+01 0.0000000e+00 8.0000000e+00 
8.8000000e+01 0.0000000e+00 7.0000000e+00 
8.8000000e+01 0.0000000e+00 6.0000000e+00 
8.9000000e+01 1.0000000e+01 1.4000000e+01 
8.9000000e+01 9.0000000e+00 1.4000000e+01 
8.9000000e+01 8.0000000e+00 1.4000000e+01 
8.8000000e+01 0.0000000e+00 5.0000000e+00 
8.9000000e+01 7.0000000e+00 1.4000000e+01 
8.9000000e+01 6.0000000e+00 1.4000000e+01 
8.8000000e+01 1.0000000e+01 0.0000000e+00 
8.8000000e+01 9.0000000e+00 0.0000000e+00 
8.8000000e+01 8.0000000e+00 0.0000000e+00 
8.8000000e+01 0.0000000e+00 4.0000000e+00 
8.9000000e+01 5.0000000e+00 1.4000000e+01 
8.8000000e+01 7.0000000e+00 0.0000000e+00 
8.8000000e+01 6.0000000e+00 0.0000000e+00 
8.9000000e+01 4.0000000e+00 1.4000000e+01 
8.8000000e+01 5.0000000e+00 0.0000000e+00 
8.8000000e+01 0.0000000e+00 3.0000000e+00 
8.9000000e+01 3.0000000e+00 1.4000000e+01 
8.8000000e+01 4.0000000e+00 0.0000000e+00 
8.9000000e+01 2.0000000e+00 1.4000000e+01 
8.8000000e+01 0.0000000e+00 2.0000000e+00 
8.8000000e+01 3.0000000e+00 0.0000000e+00 
8.9000000e+01 1.0000000e+00 1.4000000e+01 
8.8000000e+01 2.0000000e+00 0.0000000e+00 
8.8000000e+01 0.0000000e+00 1.0000000e+00 
8.9000000e+01 0.0000000e+00 1.4000000e+01 
8.8000000e+01 1.0000000e+00 0.0000000e+00 
8.9000000e+01 0.0000000e+00 1.3000000e+01 
8.9000000e+01 0.0000000e+00 1.2000000e+01 
8.9000000e+01 0.0000000e+00 1.1000000e+01 
8.9000000e+01 0.0000000e+00 1.0000000e+01 
8.8000000e+01 0.0000000e+00 0.0000000e+00 
8.9000000e+01 0.0000000e+00 9.0000000e+00 
8.9000000e+01 0.0000000e+00 8.0000000e+00 
8.9000000e+01 0.0000000e+00 7.0000000e+00 
8.9000000e+01 0.0000000e+00 6.0000000e+00 
9.0000000e+01 1.0000000e+01 1.4000000e+01 
9.0000000e+01 9.0000000e+00 1.4000000e+01 
8.9000000e+01 0.0000000e+00 5.0000000e+00 
9.0000000e+01 8.0000000e+00 1.4000000e+01 
9.0000000e+01 7.0000000e+00 1.4000000e+01 
9.0000000e+01 6.0000000e+00 1.4000000e+01 
8.9000000e+01 1.0000000e+01 0.0000000e+00 
8.9000000e+01 9.0000000e+00 0.0000000e+00 
8.9000000e+01 0.0000000e+00 4.0000000e+00 
8.9000000e+01 8.0000000e+00 0.0000000e+00 
9.0000000e+01 5.0000000e+00 1.4000000e+01 
8.9000000e+01 7.0000000e+00 0.0000000e+00 
8.9000000e+01 6.0000000e+00 0.0000000e+00 
9.0000000e+01 4.0000000e+00 1.4000000e+01 
8.9000000e+01 0.0000000e+00 3.0000000e+00 
8.9000000e+01 5.0000000e+00 0.0000000e+00 
9.0000000e+01 3.0000000e+00 1.4000000e+01 
8.9000000e+01 4.0000000e+00 0.0000000e+00 
9.0000000e+01 2.0000000e+00 1.4000000e+01 
8.9000000e+01 0.0000000e+00 2.0000000e+00 
8.9000000e+01 3.0000000e+00 0.0000000e+00 
8.9000000e+01 2.0000000e+00 0.0000000e+00 
9.0000000e+01 1.0000000e+00 1.4000000e+01 
8.9000000e+01 0.0000000e+00 1.0000000e+00 
8.9000000e+01 1.0000000e+00 0.0000000e+00 
9.0000000e+01 0.0000000e+00 1.4000000e+01 
9.0000000e+01 0.0000000e+00 1.3000000e+01 
9.0000000e+01 0.0000000e+00 1.2000000e+01 
9.0000000e+01 0.0000000e+00 1.1000000e+01 
9.0000000e+01 0.0000000e+00 1.0000000e+01 
8.9000000e+01 0.0000000e+00 0.0000000e+00 
9.0000000e+01 0.0000000e+00 9.0000000e+00 
9.0000000e+01 0.0000000e+00 8.0000000e+00 
9.0000000e+01 0.0000000e+00 7.0000000e+00 
9.0000000e+01 0.0000000e+00 6.0000000e+00 
9.0000000e+01 0.0000000e+00 5.0000000e+00 
9.1000000e+01 1.0000000e+01 1.4000000e+01 
9.1000000e+01 9.0000000e+00 1.4000000e+01 
9.1000000e+01 8.0000000e+00 1.4000000e+01 
9.1000000e+01 7.0000000e+00 1.4000000e+01 
9.0000000e+01 1.0000000e+01 0.0000000e+00 
9.1000000e+01 6.0000000e+00 1.4000000e+01 
9.0000000e+01 9.0000000e+00 0.0000000e+00 
9.0000000e+01 0.0000000e+00 4.0000000e+00 
9.0000000e+01 8.0000000e+00 0.0000000e+00 
9.0000000e+01 7.0000000e+00 0.0000000e+00 
9.1000000e+01 5.0000000e+00 1.4000000e+01 
9.0000000e+01 6.0000000e+00 0.0000000e+00 
9.1000000e+01 4.0000000e+00 1.4000000e+01 
9.0000000e+01 0.0000000e+00 3.0000000e+00 
9.0000000e+01 5.0000000e+00 0.0000000e+00 
9.1000000e+01 3.0000000e+00 1.4000000e+01 
9.0000000e+01 4.0000000e+00 0.0000000e+00 
9.0000000e+01 0.0000000e+00 2.0000000e+00 
9.1000000e+01 2.0000000e+00 1.4000000e+01 
9.0000000e+01 3.0000000e+00 0.0000000e+00 
9.0000000e+01 2.0000000e+00 0.0000000e+00 
9.1000000e+01 1.0000000e+00 1.4000000e+01 
9.0000000e+01 0.0000000e+00 1.0000000e+00 
9.0000000e+01 1.0000000e+00 0.0000000e+00 
9.1000000e+01 0.0000000e+00 1.4000000e+01 
9.1000000e+01 0.0000000e+00 1.3000000e+01 
9.1000000e+01 0.0000000e+00 1.2000000e+01 
9.1000000e+01 0.0000000e+00 1.1000000e+01 
9.0000000e+01 0.0000000e+00 0.0000000e+00 
9.1000000e+01 0.0000000e+00 1.0000000e+01 
9.1000000e+01 0.0000000e+00 9.0000000e+00 
9.1000000e+01 0.0000000e+00 8.0000000e+00 
9.1000000e+01 0.0000000e+00 7.0000000e+00 
9.1000000e+01 0.0000000e+00 6.0000000e+00 
9.1000000e+01 0.0000000e+00 5.0000000e+00 
9.2000000e+01 1.0000000e+01 1.4000000e+01 
9.2000000e+01 9.0000000e+00 1.4000000e+01 
9.2000000e+01 8.0000000e+00 1.4000000e+01 
9.2000000e+01 7.0000000e+00 1.4000000e+01 
9.1000000e+01 1.0000000e+01 0.0000000e+00 
9.1000000e+01 9.0000000e+00 0.0000000e+00 
9.2000000e+01 6.0000000e+00 1.4000000e+01 
9.1000000e+01 8.0000000e+00 0.0000000e+00 
9.1000000e+01 0.0000000e+00 4.0000000e+00 
9.1000000e+01 7.0000000e+00 0.0000000e+00 
9.2000000e+01 5.0000000e+00 1.4000000e+01 
9.1000000e+01 6.0000000e+00 0.0000000e+00 
9.2000000e+01 4.0000000e+00 1.4000000e+01 
9.1000000e+01 5.0000000e+00 0.0000000e+00 
9.1000000e+01 0.0000000e+00 3.0000000e+00 
9.1000000e+01 4.0000000e+00 0.0000000e+00 
9.2000000e+01 3.0000000e+00 1.4000000e+01 
9.1000000e+01 0.0000000e+00 2.0000000e+00 
9.1000000e+01 3.0000000e+00 0.0000000e+00 
9.2000000e+01 2.0000000e+00 1.4000000e+01 
9.1000000e+01 2.0000000e+00 0.0000000e+00 
9.2000000e+01 1.0000000e+00 1.4000000e+01 
9.1000000e+01 0.0000000e+00 1.0000000e+00 
9.1000000e+01 1.0000000e+00 0.0000000e+00 
9.2000000e+01 0.0000000e+00 1.4000000e+01 
9.2000000e+01 0.0000000e+00 1.3000000e+01 
9.2000000e+01 0.0000000e+00 1.2000000e+01 
9.2000000e+01 0.0000000e+00 1.1000000e+01 
9.1000000e+01 0.0000000e+00 0.0000000e+00 
9.2000000e+01 0.0000000e+00 1.0000000e+01 
9.2000000e+01 0.0000000e+00 9.0000000e+00 
9.2000000e+01 0.0000000e+00 8.0000000e+00 
9.2000000e+01 0.0000000e+00 7.0000000e+00 
9.2000000e+01 0.0000000e+00 6.0000000e+00 
9.2000000e+01 0.0000000e+00 5.0000000e+00 
9.3000000e+01 1.0000000e+01 1.4000000e+01 
9.3000000e+01 9.0000000e+00 1.4000000e+01 
9.3000000e+01 8.0000000e+00 1.4000000e+01 
9.3000000e+01 7.0000000e+00 1.4000000e+01 
9.2000000e+01 1.0000000e+01 0.0000000e+00 
9.2000000e+01 9.0000000e+00 0.0000000e+00 
9.2000000e+01 0.0000000e+00 4.0000000e+00 
9.2000000e+01 8.0000000e+00 0.0000000e+00 
9.3000000e+01 6.0000000e+00 1.4000000e+01 
9.2000000e+01 7.0000000e+00 0.0000000e+00 
9.3000000e+01 5.0000000e+00 1.4000000e+01 
9.2000000e+01 6.0000000e+00 0.0000000e+00 
9.2000000e+01 5.0000000e+00 0.0000000e+00 
9.2000000e+01 0.0000000e+00 3.0000000e+00 
9.3000000e+01 4.0000000e+00 1.4000000e+01 
9.2000000e+01 4.0000000e+00 0.0000000e+00 
9.3000000e+01 3.0000000e+00 1.4000000e+01 
9.2000000e+01 0.0000000e+00 2.0000000e+00 
9.2000000e+01 3.0000000e+00 0.0000000e+00 
9.3000000e+01 2.0000000e+00 1.4000000e+01 
9.2000000e+01 2.0000000e+00 0.0000000e+00 
9.3000000e+01 1.0000000e+00 1.4000000e+01 
9.2000000e+01 0.0000000e+00 1.0000000e+00 
9.2000000e+01 1.0000000e+00 0.0000000e+00 
9.3000000e+01 0.0000000e+00 1.4000000e+01 
9.3000000e+01 0.0000000e+00 1.3000000e+01 
9.3000000e+01 0.0000000e+00 1.2000000e+01 
9.3000000e+01 0.0000000e+00 1.1000000e+01 
9.2000000e+01 0.0000000e+00 0.0000000e+00 
9.3000000e+01 0.0000000e+00 1.0000000e+01 
9.3000000e+01 0.0000000e+00 9.0000000e+00 
9.3000000e+01 0.0000000e+00 8.0000000e+00 
9.3000000e+01 0.0000000e+00 7.0000000e+00 
9.3000000e+01 0.0000000e+00 6.0000000e+00 
9.3000000e+01 0.0000000e+00 5.0000000e+00 
9.4000000e+01 1.0000000e+01 1.4000000e+01 
9.4000000e+01 9.0000000e+00 1.4000000e+01 
9.4000000e+01 8.0000000e+00 1.4000000e+01 
9.3000000e+01 1.0000000e+01 0.0000000e+00 
9.4000000e+01 7.0000000e+00 1.4000000e+01 
9.3000000e+01 9.0000000e+00 0.0000000e+00 
9.3000000e+01 8.0000000e+00 0.0000000e+00 
9.3000000e+01 0.0000000e+00 4.0000000e+00 
9.4000000e+01 6.0000000e+00 1.4000000e+01 
9.3000000e+01 7.0000000e+00 0.0000000e+00 
9.4000000e+01 5.0000000e+00 1.4000000e+01 
9.3000000e+01 6.0000000e+00 0.0000000e+00 
9.3000000e+01 5.0000000e+00 0.0000000e+00 
9.3000000e+01 0.0000000e+00 3.0000000e+00 
9.4000000e+01 4.0000000e+00 1.4000000e+01 
9.3000000e+01 4.0000000e+00 0.0000000e+00 
9.4000000e+01 3.0000000e+00 1.4000000e+01 
9.3000000e+01 0.0000000e+00 2.0000000e+00 
9.3000000e+01 3.0000000e+00 0.0000000e+00 
9.4000000e+01 2.0000000e+00 1.4000000e+01 
9.3000000e+01 2.0000000e+00 0.0000000e+00 
9.4000000e+01 1.0000000e+00 1.4000000e+01 
9.3000000e+01 0.0000000e+00 1.0000000e+00 
9.3000000e+01 1.0000000e+00 0.0000000e+00 
9.4000000e+01 0.0000000e+00 1.4000000e+01 
9.4000000e+01 0.0000000e+00 1.3000000e+01 
9.4000000e+01 0.0000000e+00 1.2000000e+01 
9.3000000e+01 0.0000000e+00 0.0000000e+00 
9.4000000e+01 0.0000000e+00 1.1000000e+01 
9.4000000e+01 0.0000000e+00 1.0000000e+01 
9.4000000e+01 0.0000000e+00 9.0000000e+00 
9.4000000e+01 0.0000000e+00 8.0000000e+00 
9.4000000e+01 0.0000000e+00 7.0000000e+00 
9.4000000e+01 0.0000000e+00 6.0000000e+00 
9.4000000e+01 0.0000000e+00 5.0000000e+00 
9.5000000e+01 1.0000000e+01 1.4000000e+01 
9.5000000e+01 9.0000000e+00 1.4000000e+01 
9.5000000e+01 8.0000000e+00 1.4000000e+01 
9.4000000e+01 1.0000000e+01 0.0000000e+00 
9.4000000e+01 9.0000000e+00 0.0000000e+00 
9.5000000e+01 7.0000000e+00 1.4000000e+01 
9.4000000e+01 8.0000000e+00 0.0000000e+00 
9.4000000e+01 0.0000000e+00 4.0000000e+00 
9.4000000e+01 7.0000000e+00 0.0000000e+00 
9.5000000e+01 6.0000000e+00 1.4000000e+01 
9.4000000e+01 6.0000000e+00 0.0000000e+00 
9.5000000e+01 5.0000000e+00 1.4000000e+01 
9.4000000e+01 5.0000000e+00 0.0000000e+00 
9.4000000e+01 0.0000000e+00 3.0000000e+00 
9.5000000e+01 4.0000000e+00 1.4000000e+01 
9.4000000e+01 4.0000000e+00 0.0000000e+00 
9.5000000e+01 3.0000000e+00 1.4000000e+01 
9.4000000e+01 0.0000000e+00 2.0000000e+00 
9.4000000e+01 3.0000000e+00 0.0000000e+00 
9.5000000e+01 2.0000000e+00 1.4000000e+01 
9.4000000e+01 2.0000000e+00 0.0000000e+00 
9.4000000e+01 0.0000000e+00 1.0000000e+00 
9.5000000e+01 1.0000000e+00 1.4000000e+01 
9.4000000e+01 1.0000000e+00 0.0000000e+00 
9.5000000e+01 0.0000000e+00 1.4000000e+01 
9.5000000e+01 0.0000000e+00 1.3000000e+01 
9.5000000e+01 0.0000000e+00 1.2000000e+01 
9.4000000e+01 0.0000000e+00 0.0000000e+00 
9.5000000e+01 0.0000000e+00 1.1000000e+01 
9.5000000e+01 0.0000000e+00 1.0000000e+01 
9.5000000e+01 0.0000000e+00 9.0000000e+00 
9.5000000e+01 0.0000000e+00 8.0000000e+00 
9.5000000e+01 0.0000000e+00 7.0000000e+00 
9.5000000e+01 0.0000000e+00 6.0000000e+00 
9.5000000e+01 0.0000000e+00 5.0000000e+00 
9.6000000e+01 1.0000000e+01 1.4000000e+01 
9.6000000e+01 9.0000000e+00 1.4000000e+01 
9.6000000e+01 8.0000000e+00 1.4000000e+01 
9.5000000e+01 1.0000000e+01 0.0000000e+00 
9.5000000e+01 9.0000000e+00 0.0000000e+00 
9.5000000e+01 8.0000000e+00 0.0000000e+00 
9.5000000e+01 0.0000000e+00 4.0000000e+00 
9.6000000e+01 7.0000000e+00 1.4000000e+01 
9.5000000e+01 7.0000000e+00 0.0000000e+00 
9.6000000e+01 6.0000000e+00 1.4000000e+01 
9.5000000e+01 6.0000000e+00 0.0000000e+00 
9.6000000e+01 5.0000000e+00 1.4000000e+01 
9.5000000e+01 0.0000000e+00 3.0000000e+00 
9.5000000e+01 5.0000000e+00 0.0000000e+00 
9.6000000e+01 4.0000000e+00 1.4000000e+01 
9.5000000e+01 4.0000000e+00 0.0000000e+00 
9.6000000e+01 3.0000000e+00 1.4000000e+01 
9.5000000e+01 0.0000000e+00 2.0000000e+00 
9.5000000e+01 3.0000000e+00 0.0000000e+00 
9.6000000e+01 2.0000000e+00 1.4000000e+01 
9.5000000e+01 2.0000000e+00 0.0000000e+00 
9.5000000e+01 0.0000000e+00 1.0000000e+00 
9.6000000e+01 1.0000000e+00 1.4000000e+01 
9.5000000e+01 1.0000000e+00 0.0000000e+00 
9.6000000e+01 0.0000000e+00 1.4000000e+01 
9.6000000e+01 0.0000000e+00 1.3000000e+01 
9.6000000e+01 0.0000000e+00 1.2000000e+01 
9.5000000e+01 0.0000000e+00 0.0000000e+00 
9.6000000e+01 0.0000000e+00 1.1000000e+01 
9.6000000e+01 0.0000000e+00 1.0000000e+01 
9.6000000e+01 0.0000000e+00 9.0000000e+00 
9.6000000e+01 0.0000000e+00 8.0000000e+00 
9.6000000e+01 0.0000000e+00 7.0000000e+00 
9.6000000e+01 0.0000000e+00 6.0000000e+00 
9.6000000e+01 0.0000000e+00 5.0000000e+00 
9.7000000e+01 1.0000000e+01 1.4000000e+01 
9.7000000e+01 9.0000000e+00 1.4000000e+01 
9.6000000e+01 1.0000000e+01 0.0000000e+00 
9.7000000e+01 8.0000000e+00 1.4000000e+01 
9.6000000e+01 9.0000000e+00 0.0000000e+00 
9.6000000e+01 8.0000000e+00 0.0000000e+00 
9.6000000e+01 0.0000000e+00 4.0000000e+00 
9.7000000e+01 7.0000000e+00 1.4000000e+01 
9.6000000e+01 7.0000000e+00 0.0000000e+00 
9.7000000e+01 6.0000000e+00 1.4000000e+01 
9.6000000e+01 6.0000000e+00 0.0000000e+00 
9.7000000e+01 5.0000000e+00 1.4000000e+01 
9.6000000e+01 5.0000000e+00 0.0000000e+00 
9.6000000e+01 0.0000000e+00 3.0000000e+00 
9.7000000e+01 4.0000000e+00 1.4000000e+01 
9.6000000e+01 4.0000000e+00 0.0000000e+00 
9.7000000e+01 3.0000000e+00 1.4000000e+01 
9.6000000e+01 0.0000000e+00 2.0000000e+00 
9.6000000e+01 3.0000000e+00 0.0000000e+00 
9.7000000e+01 2.0000000e+00 1.4000000e+01 
9.6000000e+01 2.0000000e+00 0.0000000e+00 
9.6000000e+01 0.0000000e+00 1.0000000e+00 
9.7000000e+01 1.0000000e+00 1.4000000e+01 
9.6000000e+01 1.0000000e+00 0.0000000e+00 
9.7000000e+01 0.0000000e+00 1.4000000e+01 
9.7000000e+01 0.0000000e+00 1.3000000e+01 
9.6000000e+01 0.0000000e+00 0.0000000e+00 
9.7000000e+01 0.0000000e+00 1.2000000e+01 
9.7000000e+01 0.0000000e+00 1.1000000e+01 
9.7000000e+01 0.0000000e+00 1.0000000e+01 
9.7000000e+01 0.0000000e+00 9.0000000e+00 
9.7000000e+01 0.0000000e+00 8.0000000e+00 
9.7000000e+01 0.0000000e+00 7.0000000e+00 
9.7000000e+01 0.0000000e+00 6.0000000e+00 
9.7000000e+01 0.0000000e+00 5.0000000e+00 
9.8000000e+01 1.0000000e+01 1.4000000e+01 
9.8000000e+01 9.0000000e+00 1.4000000e+01 
9.7000000e+01 1.0000000e+01 0.0000000e+00 
9.7000000e+01 9.0000000e+00 0.0000000e+00 
9.8000000e+01 8.0000000e+00 1.4000000e+01 
9.7000000e+01 0.0000000e+00 4.0000000e+00 
9.7000000e+01 8.0000000e+00 0.0000000e+00 
9.8000000e+01 7.0000000e+00 1.4000000e+01 
9.7000000e+01 7.0000000e+00 0.0000000e+00 
9.8000000e+01 6.0000000e+00 1.4000000e+01 
9.7000000e+01 6.0000000e+00 0.0000000e+00 
9.8000000e+01 5.0000000e+00 1.4000000e+01 
9.7000000e+01 0.0000000e+00 3.0000000e+00 
9.7000000e+01 5.0000000e+00 0.0000000e+00 
9.8000000e+01 4.0000000e+00 1.4000000e+01 
9.7000000e+01 4.0000000e+00 0.0000000e+00 
9.7000000e+01 0.0000000e+00 2.0000000e+00 
9.8000000e+01 3.0000000e+00 1.4000000e+01 
9.7000000e+01 3.0000000e+00 0.0000000e+00 
9.8000000e+01 2.0000000e+00 1.4000000e+01 
9.7000000e+01 2.0000000e+00 0.0000000e+00 
9.7000000e+01 0.0000000e+00 1.0000000e+00 
9.8000000e+01 1.0000000e+00 1.4000000e+01 
9.7000000e+01 1.0000000e+00 0.0000000e+00 
9.8000000e+01 0.0000000e+00 1.4000000e+01 
9.7000000e+01 0.0000000e+00 0.0000000e+00 
9.8000000e+01 0.0000000e+00 1.3000000e+01 
9.8000000e+01 0.0000000e+00 1.2000000e+01 
9.8000000e+01 0.0000000e+00 1.1000000e+01 
9.8000000e+01 0.0000000e+00 1.0000000e+01 
9.8000000e+01 0.0000000e+00 9.0000000e+00 
9.8000000e+01 0.0000000e+00 8.0000000e+00 
9.8000000e+01 0.0000000e+00 7.0000000e+00 
9.8000000e+01 0.0000000e+00 6.0000000e+00 
9.8000000e+01 0.0000000e+00 5.0000000e+00 
9.8000000e+01 1.0000000e+01 0.0000000e+00 
9.9000000e+01 1.0000000e+01 1.4000000e+01 
9.8000000e+01 9.0000000e+00 0.0000000e+00 
9.9000000e+01 9.0000000e+00 1.4000000e+01 
9.8000000e+01 8.0000000e+00 0.0000000e+00 
9.8000000e+01 0.0000000e+00 4.0000000e+00 
9.9000000e+01 8.0000000e+00 1.4000000e+01 
9.8000000e+01 7.0000000e+00 0.0000000e+00 
9.9000000e+01 7.0000000e+00 1.4000000e+01 
9.8000000e+01 6.0000000e+00 0.0000000e+00 
9.9000000e+01 6.0000000e+00 1.4000000e+01 
9.8000000e+01 5.0000000e+00 0.0000000e+00 
9.8000000e+01 0.0000000e+00 3.0000000e+00 
9.9000000e+01 5.0000000e+00 1.4000000e+01 
9.8000000e+01 4.0000000e+00 0.0000000e+00 
9.9000000e+01 4.0000000e+00 1.4000000e+01 
9.8000000e+01 0.0000000e+00 2.0000000e+00 
9.8000000e+01 3.0000000e+00 0.0000000e+00 
9.9000000e+01 3.0000000e+00 1.4000000e+01 
9.8000000e+01 2.0000000e+00 0.0000000e+00 
9.9000000e+01 2.0000000e+00 1.4000000e+01 
9.8000000e+01 0.0000000e+00 1.0000000e+00 
9.8000000e+01 1.0000000e+00 0.0000000e+00 
9.9000000e+01 1.0000000e+00 1.4000000e+01 
9.8000000e+01 0.0000000e+00 0.0000000e+00 
9.9000000e+01 0.0000000e+00 1.4000000e+01 
9.9000000e+01 0.0000000e+00 1.3000000e+01 
9.9000000e+01 0.0000000e+00 1.2000000e+01 
9.9000000e+01 0.0000000e+00 1.1000000e+01 
9.9000000e+01 0.0000000e+00 1.0000000e+01 
9.9000000e+01 0.0000000e+00 9.0000000e+00 
9.9000000e+01 0.0000000e+00 8.0000000e+00 
9.9000000e+01 0.0000000e+00 7.0000000e+00 
9.9000000e+01 0.0000000e+00 6.0000000e+00 
9.9000000e+01 0.0000000e+00 5.0000000e+00 
9.9000000e+01 1.0000000e+01 0.0000000e+00 
9.9000000e+01 9.0000000e+00 0.0000000e+00 
1.0000000e+02 1.0000000e+01 1.4000000e+01 
1.0000000e+02 9.0000000e+00 1.4000000e+01 
9.9000000e+01 0.0000000e+00 4.0000000e+00 
9.9000000e+01 8.0000000e+00 0.0000000e+00 
1.0000000e+02 8.0000000e+00 1.4000000e+01 
9.9000000e+01 7.0000000e+00 0.0000000e+00 
1.0000000e+02 7.0000000e+00 1.4000000e+01 
9.9000000e+01 6.0000000e+00 0.0000000e+00 
1.0000000e+02 6.0000000e+00 1.4000000e+01 
9.9000000e+01 5.0000000e+00 0.0000000e+00 
9.9000000e+01 0.0000000e+00 3.0000000e+00 
1.0000000e+02 5.0000000e+00 1.4000000e+01 
9.9000000e+01 4.0000000e+00 0.0000000e+00 
1.0000000e+02 4.0000000e+00 1.4000000e+01 
9.9000000e+01 0.0000000e+00 2.0000000e+00 
9.9000000e+01 3.0000000e+00 0.0000000e+00 
1.0000000e+02 3.0000000e+00 1.4000000e+01 
9.9000000e+01 2.0000000e+00 0.0000000e+00 
1.0000000e+02 2.0000000e+00 1.4000000e+01 
9.9000000e+01 0.0000000e+00 1.0000000e+00 
9.9000000e+01 1.0000000e+00 0.0000000e+00 
1.0000000e+02 1.0000000e+00 1.4000000e+01 
9.9000000e+01 0.0000000e+00 0.0000000e+00 
1.0000000e+02 0.0000000e+00 1.4000000e+01 
1.0000000e+02 0.0000000e+00 1.3000000e+01 
1.0000000e+02 0.0000000e+00 1.2000000e+01 
1.0000000e+02 0.0000000e+00 1.1000000e+01 
1.0000000e+02 0.0000000e+00 1.0000000e+01 
1.0000000e+02 0.0000000e+00 9.0000000e+00 
1.0000000e+02 0.0000000e+00 8.0000000e+00 
1.0000000e+02 0.0000000e+00 7.0000000e+00 
1.0000000e+02 0.0000000e+00 6.0000000e+00 
1.0000000e+02 -1.0000000e+00 7.0000000e+00 
1.0000000e+02 0.0000000e+00 5.0000000e+00 
1.0000000e+02 -9.9685729e-01 5.9854473e+00 
1.0000000e+02 -2.0000000e+00 7.0000000e+00 
1.0000000e+02 1.0000000e+01 0.0000000e+00 
1.0000000e+02 9.0000000e+00 0.0000000e+00 
1.0000000e+02 8.0000000e+00 0.0000000e+00 
1.0000000e+02 0.0000000e+00 4.0000000e+00 
1.0000000e+02 -9.9560050e-01 4.9819671e+00 
1.0000000e+02 7.0000000e+00 0.0000000e+00 
1.0000000e+02 -1.9949669e+00 5.9804876e+00 
1.0000000e+02 6.0000000e+00 0.0000000e+00 
1.0000000e+02 -3.0000000e+00 7.0000000e+00 
1.0000000e+02 5.0000000e+00 0.0000000e+00 
1.0000000e+02 0.0000000e+00 3.0000000e+00 
1.0000000e+02 -9.9625278e-01 3.9829352e+00 
1.0000000e+02 -1.9944894e+00 4.9749862e+00 
1.0000000e+02 4.0000000e+00 0.0000000e+00 
1.0000000e+02 -2.9972584e+00 5.9892962e+00 
1.0000000e+02 -9.9302259e-01 2.9907125e+00 
1.0000000e+02 0.0000000e+00 2.0000000e+00 
1.0000000e+02 -1.9944192e+00 3.9775271e+00 
1.0000000e+02 -4.0000000e+00 7.0000000e+00 
1.0000000e+02 3.0000000e+00 0.0000000e+00 
1.0000000e+02 -2.9970716e+00 4.9874096e+00 
1.0000000e+02 2.0000000e+00 0.0000000e+00 
1.0000000e+02 -4.0000000e+00 6.0000000e+00 
1.0000000e+02 -1.0027079e+00 2.0049468e+00 
1.0000000e+02 -1.9936787e+00 2.9819006e+00 
1.0000000e+02 0.0000000e+00 1.0000000e+00 
1.0000000e+02 -2.9965387e+00 3.9853558e+00 
1.0000000e+02 1.0000000e+00 0.0000000e+00 
1.0000000e+02 -4.0000000e+00 5.0000000e+00 
1.0000000e+02 -1.9947788e+00 2.0022597e+00 
1.0000000e+02 -9.9774765e-01 1.0019808e+00 
1.0000000e+02 -2.9976692e+00 2.9871989e+00 
1.0000000e+02 0.0000000e+00 0.0000000e+00 
1.0000000e+02 -4.0000000e+00 4.0000000e+00 
1.0000000e+02 -1.9882827e+00 1.0029763e+00 
1.0000000e+02 -3.0037423e+00 1.9966086e+00 
1.0000000e+02 -4.0000000e+00 3.0000000e+00 
1.0000000e+02 -1.0000000e+00 0.0000000e+00 
1.0000000e+02 -2.9932917e+00 9.9664313e-01 
1.0000000e+02 -4.0000000e+00 2.0000000e+00 
1.0000000e+02 -2.0000000e+00 0.0000000e+00 
1.0000000e+02 -4.0000000e+00 1.0000000e+00 
1.0000000e+02 -3.0000000e+00 0.0000000e+00 
1.0000000e+02 -4.0000000e+00 0.0000000e+00 

CELLS 3428 17140
4 218 224 219 216
4 225 233 224 218
4 240 244 233 225
4 253 257 244 240
4 268 276 257 253
4 297 300 276 268
4 317 325 300 297
4 350 356 325 317
4 385 388 356 350
4 421 426 388 385
4 224 234 226 219
4 233 238 234 224
4 244 249 238 233
4 257 261 249 244
4 276 281 261 257
4 300 304 281 276
4 325 334 304 300
4 356 361 334 325
4 388 395 361 356
4 426 430 395 388
4 234 245 241 226
4 238 250 245 234
4 249 260 250 238
4 261 272 260 249
4 281 293 272 261
4 304 312 293 281
4 334 341 312 304
4 361 369 341 334
4 395 407 369 361
4 430 439 407 395
4 245 258 254 241
4 250 262 258 245
4 260 273 262 250
4 272 288 273 260
4 293 309 288 272
4 312 329 309 293
4 341 357 329 312
4 369 383 357 341
4 407 414 383 369
4 439 451 414 407
4 258 277 269 254
4 262 282 277 258
4 273 294 282 262
4 288 310 294 273
4 309 326 310 288
4 329 345 326 309
4 357 374 345 329
4 383 402 374 357
4 414 435 402 383
4 451 464 435 414
4 277 301 298 269
4 282 305 301 277
4 294 313 305 282
4 310 330 313 294
4 326 346 330 310
4 345 366 346 326
4 374 396 366 345
4 402 423 396 374
4 435 453 423 402
4 464 480 453 435
4 301 327 318 298
4 305 335 327 301
4 313 342 335 305
4 330 358 342 313
4 346 375 358 330
4 366 397 375 346
4 396 418 397 366
4 423 448 418 396
4 453 475 448 423
4 480 501 475 453
4 327 359 351 318
4 335 362 359 327
4 342 370 362 335
4 358 384 370 342
4 375 403 384 358
4 397 424 403 375
4 418 449 424 397
4 448 468 449 418
4 475 492 468 448
4 501 517 492 475
4 359 389 386 351
4 362 398 389 359
4 370 408 398 362
4 384 415 408 370
4 403 436 415 384
4 424 454 436 403
4 449 476 454 424
4 468 493 476 449
4 492 514 493 468
4 517 542 514 492
4 389 427 422 386
4 398 431 427 389
4 408 440 431 398
4 415 452 440 408
4 436 465 452 415
4 454 481 465 436
4 476 502 481 454
4 493 515 502 476
4 514 543 515 493
4 542 562 543 514
4 427 457 456 422
4 431 461 457 427
4 440 474 461 431
4 452 483 474 440
4 465 496 483 452
4 481 509 496 465
4 502 529 509 481
4 515 545 529 502
4 543 566 545 515
4 562 587 566 543
4 457 495 490 456
4 461 498 495 457
4 474 505 498 461
4 483 512 505 474
4 496 527 512 483
4 509 540 527 496
4 529 553 540 509
4 545 573 553 529
4 566 591 573 545
4 587 611 591 566
4 495 530 526 490
4 498 531 530 495
4 505 539 531 498
4 512 547 539 505
4 527 555 547 512
4 540 569 555 527
4 553 583 569 540
4 573 602 583 553
4 591 618 602 573
4 611 638 618 591
4 530 561 559 526
4 531 563 561 530
4 539 571 563 531
4 547 578 571 539
4 555 588 578 547
4 569 600 588 555
4 583 614 600 569
4 602 628 614 583
4 618 647 628 602
4 638 665 647 618
4 561 592 590 559
4 563 595 592 561
4 571 603 595 563
4 578 607 603 571
4 588 619 607 578
4 600 630 619 588
4 614 645 630 600
4 628 656 645 614
4 647 676 656 628
4 665 689 676 647
4 592 625 624 590
4 595 629 625 592
4 603 633 629 595
4 607 641 633 603
4 619 650 641 607
4 630 661 650 619
4 645 673 661 630
4 656 685 673 645
4 676 702 685 656
4 689 720 702 676
4 625 658 655 624
4 629 662 658 625
4 633 667 662 629
4 641 674 667 633
4 650 683 674 641
4 661 690 683 650
4 673 705 690 661
4 685 718 705 673
4 702 733 718 685
4 720 749 733 702
4 658 691 688 655
4 662 693 691 658
4 667 699 693 662
4 674 707 699 667
4 683 713 707 674
4 690 722 713 683
4 705 736 722 690
4 718 747 736 705
4 733 764 747 718
4 749 774 764 733
4 691 725 723 688
4 693 727 725 691
4 699 732 727 693
4 707 737 732 699
4 713 745 737 707
4 722 754 745 713
4 736 768 754 722
4 747 775 768 736
4 764 791 775 747
4 774 807 791 764
4 725 759 758 723
4 727 761 759 725
4 732 766 761 727
4 737 771 766 732
4 745 776 771 737
4 754 786 776 745
4 768 799 786 754
4 775 808 799 768
4 791 820 808 775
4 807 839 820 791
4 759 793 790 758
4 761 796 793 759
4 766 801 796 761
4 771 804 801 766
4 776 810 804 771
4 786 815 810 776
4 799 832 815 786
4 808 840 832 799
4 820 851 840 808
4 839 868 851 820
4 793 826 823 790
4 796 827 826 793
4 801 833 827 796
4 804 838 833 801
4 810 843 838 804
4 815 850 843 810
4 832 859 850 815
4 840 874 859 832
4 851 884 874 840
4 868 897 884 851
4 826 856 852 823
4 827 863 856 826
4 833 866 863 827
4 838 872 866 833
4 843 876 872 838
4 850 885 876 843
4 859 891 885 850
4 874 905 891 859
4 884 915 905 874
4 897 927 915 884
4 856 888 887 852
4 863 893 888 856
4 866 899 893 863
4 872 903 899 866
4 876 910 903 872
4 885 917 910 876
4 891 924 917 885
4 905 935 924 891
4 915 948 935 905
4 927 958 948 915
4 888 925 923 887
4 893 929 925 888
4 899 931 929 893
4 903 936 931 899
4 910 944 936 903
4 917 951 944 910
4 924 957 951 917
4 935 967 957 924
4 948 980 967 935
4 958 990 980 948
4 925 960 959 923
4 929 961 960 925
4 931 965 961 929
4 936 969 965 931
4 944 975 969 936
4 951 983 975 944
4 957 991 983 951
4 967 1001 991 957
4 980 1012 1001 967
4 990 1022 1012 980
4 960 995 993 959
4 961 996 995 960
4 965 999 996 961
4 969 1003 999 965
4 975 1010 1003 969
4 983 1015 1010 975
4 991 1024 1015 983
4 1001 1033 1024 991
4 1012 1045 1033 1001
4 1022 1053 1045 1012
4 995 1029 1027 993
4 996 1030 1029 995
4 999 1034 1030 996
4 1003 1036 1034 999
4 1010 1044 1036 1003
4 1015 1048 1044 1010
4 1024 1058 1048 1015
4 1033 1067 1058 1024
4 1045 1075 1067 1033
4 1053 1085 1075 1045
4 1029 1062 1061 1027
4 1030 1065 1062 1029
4 1034 1068 1065 1030
4 1036 1071 1068 1034
4 1044 1076 1071 1036
4 1048 1082 1076 1044
4 1058 1088 1082 1048
4 1067 1100 1088 1058
4 1075 1108 1100 1067
4 1085 1118 1108 1075
4 1062 1095 1094 1061
4 1065 1099 1095 1062
4 1068 1101 1099 1065
4 1071 1106 1101 1068
4 1076 1109 1106 1071
4 1082 1116 1109 1076
4 1088 1123 1116 1082
4 1100 1131 1123 1088
4 1108 1142 1131 1100
4 1118 1152 1142 1108
4 1095 1129 1127 1094
4 1099 1133 1129 1095
4 1101 1136 1133 1099
4 1106 1141 1136 1101
4 1109 1144 1141 1106
4 1116 1151 1144 1109
4 1123 1158 1151 1116
4 1131 1163 1158 1123
4 1142 1176 1163 1131
4 1152 1184 1176 1142
4 1129 1162 1160 1127
4 1133 1165 1162 1129
4 1136 1169 1165 1133
4 1141 1173 1169 1136
4 1144 1178 1173 1141
4 1151 1183 1178 1144
4 1158 1190 1183 1151
4 1163 1195 1190 1158
4 1176 1208 1195 1163
4 1184 1215 1208 1176
4 1162 1197 1196 1160
4 1165 1198 1197 1162
4 1169 1203 1198 1165
4 1173 1207 1203 1169
4 1178 1213 1207 1173
4 1183 1218 1213 1178
4 1190 1225 1218 1183
4 1195 1229 1225 1190
4 1208 1239 1229 1195
4 1215 1249 1239 1208
4 1197 1232 1231 1196
4 1198 1233 1232 1197
4 1203 1237 1233 1198
4 1207 1240 1237 1203
4 1213 1247 1240 1207
4 1218 1251 1247 1213
4 1225 1258 1251 1218
4 1229 1263 1258 1225
4 1239 1274 1263 1229
4 1249 1283 1274 1239
4 1232 1267 1265 1231
4 1233 1269 1267 1232
4 1237 1271 1269 1233
4 1240 1275 1271 1237
4 1247 1279 1275 1240
4 1251 1285 1279 1247
4 1258 1292 1285 1251
4 1263 1297 1292 1258
4 1274 1307 1297 1263
4 1283 1314 1307 1274
4 1267 1300 1299 1265
4 1269 1304 1300 1267
4 1271 1306 1304 1269
4 1275 1309 1306 1271
4 1279 1311 1309 1275
4 1285 1319 1311 1279
4 1292 1324 1319 1285
4 1297 1331 1324 1292
4 1307 1341 1331 1297
4 1314 1348 1341 1307
4 1300 1336 1334 1299
4 1304 1337 1336 1300
4 1306 1342 1337 1304
4 1309 1344 1342 1306
4 1311 1346 1344 1309
4 1319 1351 1346 1311
4 1324 1358 1351 1319
4 1331 1365 1358 1324
4 1341 1374 1365 1331
4 1348 1381 1374 1341
4 1336 1371 1370 1334
4 1337 1372 1371 1336
4 1342 1377 1372 1337
4 1344 1378 1377 1342
4 1346 1382 1378 1344
4 1351 1385 1382 1346
4 1358 1392 1385 1351
4 1365 1399 1392 1358
4 1374 1407 1399 1365
4 1381 1415 1407 1374
4 1371 1406 1404 1370
4 1372 1408 1406 1371
4 1377 1411 1408 1372
4 1378 1413 1411 1377
4 1382 1416 1413 1378
4 1385 1420 1416 1382
4 1392 1426 1420 1385
4 1399 1430 1426 1392
4 1407 1441 1430 1399
4 1415 1450 1441 1407
4 1406 1439 1438 1404
4 1408 1443 1439 1406
4 1411 1445 1443 1408
4 1413 1447 1445 1411
4 1416 1451 1447 1413
4 1420 1455 1451 1416
4 1426 1457 1455 1420
4 1430 1464 1457 1426
4 1441 1474 1464 1430
4 1450 1483 1474 1441
4 1439 1475 1473 1438
4 1443 1477 1475 1439
4 1445 1480 1477 1443
4 1447 1482 1480 1445
4 1451 1486 1482 1447
4 1455 1489 1486 1451
4 1457 1492 1489 1455
4 1464 1498 1492 1457
4 1474 1507 1498 1464
4 1483 1518 1507 1474
4 1475 1509 1508 1473
4 1477 1511 1509 1475
4 1480 1514 1511 1477
4 1482 1517 1514 1480
4 1486 1521 1517 1482
4 1489 1523 1521 1486
4 1492 1527 1523 1489
4 1498 1530 1527 1492
4 1507 1541 1530 1498
4 1518 1550 1541 1507
4 1509 1544 1542 1508
4 1511 1545 1544 1509
4 1514 1549 1545 1511
4 1517 1552 1549 1514
4 1521 1555 1552 1517
4 1523 1558 1555 1521
4 1527 1562 1558 1523
4 1530 1565 1562 1527
4 1541 1574 1565 1530
4 1550 1585 1574 1541
4 1544 1578 1576 1542
4 1545 1580 1578 1544
4 1549 1582 1580 1545
4 1552 1586 1582 1549
4 1555 1589 1586 1552
4 1558 1593 1589 1555
4 1562 1597 1593 1558
4 1565 1599 1597 1562
4 1574 1605 1599 1565
4 1585 1618 1605 1574
4 1578 1612 1611 1576
4 1580 1613 1612 1578
4 1582 1617 1613 1580
4 1586 1621 1617 1582
4 1589 1625 1621 1586
4 1593 1627 1625 1589
4 1597 1631 1627 1593
4 1599 1634 1631 1597
4 1605 1638 1634 1599
4 1618 1652 1638 1605
4 1612 1645 1644 1611
4 1613 1648 1645 1612
4 1617 1653 1648 1613
4 1621 1655 1653 1617
4 1625 1659 1655 1621
4 1627 1662 1659 1625
4 1631 1666 1662 1627
4 1634 1669 1666 1631
4 1638 1673 1669 1634
4 1652 1685 1673 1638
4 1645 1680 1678 1644
4 1648 1682 1680 1645
4 1653 1687 1682 1648
4 1655 1690 1687 1653
4 1659 1693 1690 1655
4 1662 1697 1693 1659
4 1666 1701 1697 1662
4 1669 1704 1701 1666
4 1673 1708 1704 1669
4 1685 1719 1708 1673
4 1680 1713 1709 1678
4 1682 1716 1713 1680
4 1687 1721 1716 1682
4 1690 1724 1721 1687
4 1693 1727 1724 1690
4 1697 1731 1727 1693
4 1701 1735 1731 1697
4 1704 1738 1735 1701
4 1708 1742 1738 1704
4 1719 1746 1742 1708
4 1713 1745 1744 1709
4 1716 1748 1745 1713
4 1721 1755 1748 1716
4 1724 1758 1755 1721
4 1727 1761 1758 1724
4 1731 1765 1761 1727
4 1735 1769 1765 1731
4 1738 1772 1769 1735
4 1742 1776 1772 1738
4 1746 1781 1776 1742
4 1745 1780 1779 1744
4 1748 1782 1780 1745
4 1755 1787 1782 1748
4 1758 1792 1787 1755
4 1761 1796 1792 1758
4 1765 1800 1796 1761
4 1769 1804 1800 1765
4 1772 1807 1804 1769
4 1776 1811 1807 1772
4 1781 1814 1811 1776
4 1780 1816 1815 1779
4 1782 1817 1816 1780
4 1787 1821 1817 1782
4 1792 1826 1821 1787
4 1796 1830 1826 1792
4 1800 1834 1830 1796
4 1804 1839 1834 1800
4 1807 1842 1839 1804
4 1811 1846 1842 1807
4 1814 1849 1846 1811
4 1816 1851 1850 1815
4 1817 1852 1851 1816
4 1821 1855 1852 1817
4 1826 1859 1855 1821
4 1830 1865 1859 1826
4 1834 1869 1865 1830
4 1839 1873 1869 1834
4 1842 1876 1873 1839
4 1846 1881 1876 1842
4 1849 1884 1881 1846
4 1851 1886 1885 1850
4 1852 1887 1886 1851
4 1855 1889 1887 1852
4 1859 1893 1889 1855
4 1865 1898 1893 1859
4 1869 1903 1898 1865
4 1873 1908 1903 1869
4 1876 1911 1908 1873
4 1881 1915 1911 1876
4 1884 1918 1915 1881
4 1886 1921 1920 1885
4 1887 1922 1921 1886
4 1889 1924 1922 1887
4 1893 1927 1924 1889
4 1898 1931 1927 1893
4 1903 1937 1931 1898
4 1908 1942 1937 1903
4 1911 1946 1942 1908
4 1915 1950 1946 1911
4 1918 1953 1950 1915
4 1921 1956 1955 1920
4 1922 1957 1956 1921
4 1924 1959 1957 1922
4 1927 1961 1959 1924
4 1931 1965 1961 1927
4 1937 1971 1965 1931
4 1942 1976 1971 1937
4 1946 1981 1976 1942
4 1950 1985 1981 1946
4 1953 1988 1985 1950
4 1956 1991 1990 1955
4 1957 1992 1991 1956
4 1959 1994 1992 1957
4 1961 1995 1994 1959
4 1965 1999 1995 1961
4 1971 2006 1999 1965
4 1976 2011 2006 1971
4 1981 2014 2011 1976
4 1985 2019 2014 1981
4 1988 2023 2019 1985
4 1991 2026 2024 1990
4 1992 2028 2026 1991
4 1994 2029 2028 1992
4 1995 2030 2029 1994
4 1999 2034 2030 1995
4 2006 2039 2034 1999
4 2011 2045 2039 2006
4 2014 2049 2045 2011
4 2019 2053 2049 2014
4 2023 2056 2053 2019
4 2026 2060 2059 2024
4 2028 2062 2060 2026
4 2029 2064 2062 2028
4 2030 2065 2064 2029
4 2034 2068 2065 2030
4 2039 2072 2068 2034
4 2045 2079 2072 2039
4 2049 2083 2079 2045
4 2053 2088 2083 2049
4 2056 2091 2088 2053
4 2060 2095 2094 2059
4 2062 2096 2095 2060
4 2064 2099 2096 2062
4 2065 2100 2099 2064
4 2068 2103 2100 2065
4 2072 2107 2103 2068
4 2079 2114 2107 2072
4 2083 2118 2114 2079
4 2088 2123 2118 2083
4 2091 2126 2123 2088
4 2095 2130 2129 2094
4 2096 2132 2130 2095
4 2099 2134 2132 2096
4 2100 2135 2134 2099
4 2103 2136 2135 2100
4 2107 2142 2136 2103
4 2114 2146 2142 2107
4 2118 2152 2146 2114
4 2123 2157 2152 2118
4 2126 2161 2157 2123
4 2130 2165 2164 2129
4 2132 2167 2165 2130
4 2134 2169 2167 2132
4 2135 2170 2169 2134
4 2136 2171 2170 2135
4 2142 2177 2171 2136
4 2146 2180 2177 2142
4 2152 2187 2180 2146
4 2157 2192 2187 2152
4 2161 2195 2192 2157
4 2165 2200 2199 2164
4 2167 2201 2200 2165
4 2169 2203 2201 2167
4 2170 2205 2203 2169
4 2171 2206 2205 2170
4 2177 2211 2206 2171
4 2180 2215 2211 2177
4 2187 2220 2215 2180
4 2192 2227 2220 2187
4 2195 2230 2227 2192
4 2200 2235 2234 2199
4 2201 2236 2235 2200
4 2203 2238 2236 2201
4 2205 2240 2238 2203
4 2206 2241 2240 2205
4 2211 2246 2241 2206
4 2215 2250 2246 2211
4 2220 2254 2250 2215
4 2227 2261 2254 2220
4 2230 2265 2261 2227
4 2235 2270 2269 2234
4 2236 2272 2270 2235
4 2238 2273 2272 2236
4 2240 2275 2273 2238
4 2241 2276 2275 2240
4 2246 2280 2276 2241
4 2250 2284 2280 2246
4 2254 2287 2284 2250
4 2261 2295 2287 2254
4 2265 2300 2295 2261
4 2270 2305 2304 2269
4 2272 2307 2305 2270
4 2273 2308 2307 2272
4 2275 2309 2308 2273
4 2276 2311 2309 2275
4 2280 2314 2311 2276
4 2284 2319 2314 2280
4 2287 2322 2319 2284
4 2295 2329 2322 2287
4 2300 2334 2329 2295
4 2305 2339 2338 2304
4 2307 2341 2339 2305
4 2308 2343 2341 2307
4 2309 2344 2343 2308
4 2311 2346 2344 2309
4 2314 2348 2346 2311
4 2319 2354 2348 2314
4 2322 2357 2354 2319
4 2329 2363 2357 2322
4 2334 2368 2363 2329
4 2339 2374 2373 2338
4 2341 2377 2374 2339
4 2343 2378 2377 2341
4 2344 2379 2378 2343
4 2346 2381 2379 2344
4 2348 2383 2381 2346
4 2354 2389 2383 2348
4 2357 2391 2389 2354
4 2363 2398 2391 2357
4 2368 2402 2398 2363
4 2374 2409 2408 2373
4 2377 2410 2409 2374
4 2378 2413 2410 2377
4 2379 2414 2413 2378
4 2381 2416 2414 2379
4 2383 2418 2416 2381
4 2389 2423 2418 2383
4 2391 2426 2423 2389
4 2398 2431 2426 2391
4 2402 2437 2431 2398
4 2409 2444 2443 2408
4 2410 2445 2444 2409
4 2413 2448 2445 2410
4 2414 2449 2448 2413
4 2416 2451 2449 2414
4 2418 2453 2451 2416
4 2423 2458 2453 2418
4 2426 2461 2458 2423
4 2431 2465 2461 2426
4 2437 2471 2465 2431
4 2444 2479 2478 2443
4 2445 2481 2479 2444
4 2448 2482 2481 2445
4 2449 2484 2482 2448
4 2451 2485 2484 2449
4 2453 2488 2485 2451
4 2458 2493 2488 2453
4 2461 2496 2493 2458
4 2465 2500 2496 2461
4 2471 2506 2500 2465
4 2479 2514 2513 2478
4 2481 2515 2514 2479
4 2482 2517 2515 2481
4 2484 2519 2517 2482
4 2485 2520 2519 2484
4 2488 2523 2520 2485
4 2493 2527 2523 2488
4 2496 2531 2527 2493
4 2500 2534 2531 2496
4 2506 2540 2534 2500
4 2514 2549 2548 2513
4 2515 2550 2549 2514
4 2517 2552 2550 2515
4 2519 2554 2552 2517
4 2520 2555 2554 2519
4 2523 2558 2555 2520
4 2527 2561 2558 2523
4 2531 2565 2561 2527
4 2534 2569 2565 2531
4 2540 2574 2569 2534
4 2549 2584 2582 2548
4 2550 2585 2584 2549
4 2552 2587 2585 2550
4 2554 2589 2587 2552
4 2555 2590 2589 2554
4 2558 2593 2590 2555
4 2561 2595 2593 2558
4 2565 2600 2595 2561
4 2569 2604 2600 2565
4 2574 2606 2604 2569
4 2584 2618 2617 2582
4 2585 2620 2618 2584
4 2587 2622 2620 2585
4 2589 2623 2622 2587
4 2590 2625 2623 2589
4 2593 2628 2625 2590
4 2595 2630 2628 2593
4 2600 2635 2630 2595
4 2604 2639 2635 2600
4 2606 2641 2639 2604
4 2618 2653 2652 2617
4 2620 2655 2653 2618
4 2622 2657 2655 2620
4 2623 2658 2657 2622
4 2625 2660 2658 2623
4 2628 2662 2660 2625
4 2630 2665 2662 2628
4 2635 2669 2665 2630
4 2639 2674 2669 2635
4 2641 2676 2674 2639
4 2653 2688 2687 2652
4 2655 2689 2688 2653
4 2657 2692 2689 2655
4 2658 2693 2692 2657
4 2660 2695 2693 2658
4 2662 2697 2695 2660
4 2665 2700 2697 2662
4 2669 2704 2700 2665
4 2674 2708 2704 2669
4 2676 2711 2708 2674
4 2688 2723 2722 2687
4 2689 2725 2723 2688
4 2692 2727 2725 2689
4 2693 2728 2727 2692
4 2695 2731 2728 2693
4 2697 2732 2731 2695
4 2700 2735 2732 2697
4 2704 2739 2735 2700
4 2708 2743 2739 2704
4 2711 2746 2743 2708
4 2723 2758 2757 2722
4 2725 2759 2758 2723
4 2727 2761 2759 2725
4 2728 2763 2761 2727
4 2731 2764 2763 2728
4 2732 2767 2764 2731
4 2735 2770 2767 2732
4 2739 2773 2770 2735
4 2743 2778 2773 2739
4 2746 2781 2778 2743
4 2758 2793 2792 2757
4 2759 2795 2793 2758
4 2761 2796 2795 2759
4 2763 2798 2796 2761
4 2764 2799 2798 2763
4 2767 2802 2799 2764
4 2770 2805 2802 2767
4 2773 2807 2805 2770
4 2778 2813 2807 2773
4 2781 2816 2813 2778
4 2793 2827 2826 2792
4 2795 2829 2827 2793
4 2796 2831 2829 2795
4 2798 2833 2831 2796
4 2799 2834 2833 2798
4 2802 2837 2834 2799
4 2805 2840 2837 2802
4 2807 2841 2840 2805
4 2813 2847 2841 2807
4 2816 2850 2847 2813
4 2827 2862 2861 2826
4 2829 2865 2862 2827
4 2831 2866 2865 2829
4 2833 2867 2866 2831
4 2834 2869 2867 2833
4 2837 2872 2869 2834
4 2840 2875 2872 2837
4 2841 2876 2875 2840
4 2847 2882 2876 2841
4 2850 2885 2882 2847
4 2862 2897 2896 2861
4 2865 2898 2897 2862
4 2866 2901 2898 2865
4 2867 2902 2901 2866
4 2869 2904 2902 2867
4 2872 2907 2904 2869
4 2875 2909 2907 2872
4 2876 2911 2909 2875
4 2882 2917 2911 2876
4 2885 2920 2917 2882
4 2897 2932 2931 2896
4 2898 2934 2932 2897
4 2901 2936 2934 2898
4 2902 2937 2936 2901
4 2904 2939 2937 2902
4 2907 2942 2939 2904
4 2909 2944 2942 2907
4 2911 2946 2944 2909
4 2917 2952 2946 2911
4 2920 2955 2952 2917
4 2932 2967 2966 2931
4 2934 2969 2967 2932
4 2936 2971 2969 2934
4 2937 2972 2971 2936
4 2939 2975 2972 2937
4 2942 2976 2975 2939
4 2944 2979 2976 2942
4 2946 2981 2979 2944
4 2952 2986 2981 2946
4 2955 2990 2986 2952
4 2967 3002 3000 2966
4 2969 3003 3002 2967
4 2971 3005 3003 2969
4 2972 3007 3005 2971
4 2975 3009 3007 2972
4 2976 3011 3009 2975
4 2979 3014 3011 2976
4 2981 3016 3014 2979
4 2986 3021 3016 2981
4 2990 3025 3021 2986
4 3002 3036 3035 3000
4 3003 3038 3036 3002
4 3005 3040 3038 3003
4 3007 3042 3040 3005
4 3009 3043 3042 3007
4 3011 3046 3043 3009
4 3014 3049 3046 3011
4 3016 3051 3049 3014
4 3021 3055 3051 3016
4 3025 3059 3055 3021
4 3036 3071 3070 3035
4 3038 3073 3071 3036
4 3040 3075 3073 3038
4 3042 3077 3075 3040
4 3043 3078 3077 3042
4 3046 3081 3078 3043
4 3049 3084 3081 3046
4 3051 3086 3084 3049
4 3055 3090 3086 3051
4 3059 3094 3090 3055
4 3071 3106 3105 3070
4 3073 3107 3106 3071
4 3075 3110 3107 3073
4 3077 3111 3110 3075
4 3078 3113 3111 3077
4 3081 3116 3113 3078
4 3084 3119 3116 3081
4 3086 3121 3119 3084
4 3090 3124 3121 3086
4 3094 3129 3124 3090
4 3106 3141 3140 3105
4 3107 3143 3141 3106
4 3110 3145 3143 3107
4 3111 3146 3145 3110
4 3113 3149 3146 3111
4 3116 3151 3149 3113
4 3119 3154 3151 3116
4 3121 3155 3154 3119
4 3124 3158 3155 3121
4 3129 3164 3158 3124
4 3141 3176 3174 3140
4 3143 3178 3176 3141
4 3145 3179 3178 3143
4 3146 3181 3179 3145
4 3149 3184 3181 3146
4 3151 3186 3184 3149
4 3154 3189 3186 3151
4 3155 3190 3189 3154
4 3158 3193 3190 3155
4 3164 3198 3193 3158
4 3176 3210 3209 3174
4 3178 3212 3210 3176
4 3179 3214 3212 3178
4 3181 3216 3214 3179
4 3184 3218 3216 3181
4 3186 3220 3218 3184
4 3189 3223 3220 3186
4 3190 3225 3223 3189
4 3193 3228 3225 3190
4 3198 3233 3228 3193
4 3210 3245 3244 3209
4 3212 3247 3245 3210
4 3214 3249 3247 3212
4 3216 3251 3249 3214
4 3218 3252 3251 3216
4 3220 3255 3252 3218
4 3223 3258 3255 3220
4 3225 3260 3258 3223
4 3228 3263 3260 3225
4 3233 3268 3263 3228
4 3245 3280 3278 3244
4 3247 3281 3280 3245
4 3249 3284 3281 3247
4 3251 3286 3284 3249
4 3252 3287 3286 3251
4 3255 3290 3287 3252
4 3258 3293 3290 3255
4 3260 3295 3293 3258
4 3263 3298 3295 3260
4 3268 3302 3298 3263
4 3280 3314 3313 3278
4 3281 3316 3314 3280
4 3284 3318 3316 3281
4 3286 3320 3318 3284
4 3287 3322 3320 3286
4 3290 3325 3322 3287
4 3293 3328 3325 3290
4 3295 3330 3328 3293
4 3298 3333 3330 3295
4 3302 3337 3333 3298
4 3314 3349 3348 3313
4 3316 3350 3349 3314
4 3318 3353 3350 3316
4 3320 3355 3353 3318
4 3322 3358 3355 3320
4 3325 3360 3358 3322
4 3328 3363 3360 3325
4 3330 3365 3363 3328
4 3333 3368 3365 3330
4 3337 3372 3368 3333
4 3349 3384 3382 3348
4 3350 3385 3384 3349
4 3353 3388 3385 3350
4 3355 3390 3388 3353
4 3358 3392 3390 3355
4 3360 3395 3392 3358
4 3363 3398 3395 3360
4 3365 3400 3398 3363
4 3368 3403 3400 3365
4 3372 3406 3403 3368
4 3384 3418 3417 3382
4 3385 3421 3418 3384
4 3388 3423 3421 3385
4 3390 3425 3423 3388
4 3392 3428 3425 3390
4 3395 3430 3428 3392
4 3398 3433 3430 3395
4 3400 3435 3433 3398
4 3403 3438 3435 3400
4 3406 3440 3438 3403
4 3418 3452 3450 3417
4 3421 3454 3452 3418
4 3423 3457 3454 3421
4 3425 3459 3457 3423
4 3428 3461 3459 3425
4 3430 3464 3461 3428
4 3433 3467 3464 3430
4 3435 3469 3467 3433
4 3438 3472 3469 3435
4 3440 3474 3472 3438
4 3452 3486 3485 3450
4 3454 3490 3486 3452
4 3457 3492 3490 3454
4 3459 3494 3492 3457
4 3461 3496 3494 3459
4 3464 3499 3496 3461
4 3467 3502 3499 3464
4 3469 3504 3502 3467
4 3472 3507 3504 3469
4 3474 3509 3507 3472
4 3486 3524 3523 3485
4 3490 3525 3524 3486
4 3492 3528 3525 3490
4 3494 3530 3528 3492
4 3496 3532 3530 3494
4 3499 3536 3532 3496
4 3502 3542 3536 3499
4 3504 3544 3542 3502
4 3507 3550 3544 3504
4 3509 3555 3550 3507
4 367 376 426 421
4 315 319 376 367
4 270 278 319 315
4 227 235 278 270
4 199 202 235 227
4 176 180 202 199
4 159 161 180 176
4 376 380 430 426
4 319 331 380 376
4 278 283 331 319
4 235 239 283 278
4 202 207 239 235
4 180 183 207 202
4 161 166 183 180
4 380 390 439 430
4 331 339 390 380
4 283 295 339 331
4 239 251 295 283
4 207 212 251 239
4 183 191 212 207
4 166 170 191 183
4 390 404 451 439
4 339 352 404 390
4 295 311 352 339
4 251 263 311 295
4 212 220 263 251
4 191 196 220 212
4 170 179 196 191
4 404 419 464 451
4 352 371 419 404
4 311 328 371 352
4 263 284 328 311
4 220 246 284 263
4 196 211 246 220
4 179 193 211 196
4 419 441 480 464
4 371 392 441 419
4 328 347 392 371
4 284 307 347 328
4 246 265 307 284
4 211 229 265 246
4 193 206 229 211
4 441 459 501 480
4 392 416 459 441
4 347 377 416 392
4 307 336 377 347
4 265 296 336 307
4 229 259 296 265
4 206 223 259 229
4 459 484 517 501
4 416 446 484 459
4 377 405 446 416
4 336 363 405 377
4 296 320 363 336
4 259 289 320 296
4 223 256 289 259
4 484 506 542 517
4 446 470 506 484
4 405 437 470 446
4 363 399 437 405
4 320 360 399 363
4 289 321 360 320
4 256 292 321 289
4 506 532 562 542
4 470 499 532 506
4 437 466 499 470
4 399 432 466 437
4 360 400 432 399
4 321 364 400 360
4 292 333 364 321
4 532 554 587 562
4 499 524 554 532
4 466 497 524 499
4 432 462 497 466
4 400 434 462 432
4 364 401 434 400
4 333 373 401 364
4 554 582 611 587
4 524 549 582 554
4 497 528 549 524
4 462 500 528 497
4 434 471 500 462
4 401 447 471 434
4 373 413 447 401
4 582 609 638 611
4 549 581 609 582
4 528 556 581 549
4 500 533 556 528
4 471 507 533 500
4 447 485 507 471
4 413 458 485 447
4 609 639 665 638
4 581 610 639 609
4 556 586 610 581
4 533 564 586 556
4 507 544 564 533
4 485 518 544 507
4 458 503 518 485
4 639 668 689 665
4 610 642 668 639
4 586 620 642 610
4 564 596 620 586
4 544 577 596 564
4 518 551 577 544
4 503 538 551 518
4 668 696 720 689
4 642 671 696 668
4 620 649 671 642
4 596 627 649 620
4 577 606 627 596
4 551 589 606 577
4 538 574 589 551
4 696 726 749 720
4 671 703 726 696
4 649 684 703 671
4 627 663 684 649
4 606 644 663 627
4 589 626 644 606
4 574 608 626 589
4 726 757 774 749
4 703 735 757 726
4 684 714 735 703
4 663 694 714 684
4 644 678 694 663
4 626 660 678 644
4 608 646 660 626
4 757 784 807 774
4 735 765 784 757
4 714 744 765 735
4 694 728 744 714
4 678 710 728 694
4 660 695 710 678
4 646 682 695 660
4 784 814 839 807
4 765 798 814 784
4 744 777 798 765
4 728 760 777 744
4 710 743 760 728
4 695 729 743 710
4 682 717 729 695
4 814 847 868 839
4 798 830 847 814
4 777 811 830 798
4 760 797 811 777
4 743 778 797 760
4 729 767 778 743
4 717 752 767 729
4 847 879 897 868
4 830 858 879 847
4 811 844 858 830
4 797 828 844 811
4 778 813 828 797
4 767 802 813 778
4 752 787 802 767
4 879 912 927 897
4 858 889 912 879
4 844 877 889 858
4 828 861 877 844
4 813 846 861 828
4 802 837 846 813
4 787 822 837 802
4 912 942 958 927
4 889 921 942 912
4 877 911 921 889
4 861 894 911 877
4 846 881 894 861
4 837 870 881 846
4 822 853 870 837
4 942 974 990 958
4 921 956 974 942
4 911 945 956 921
4 894 926 945 911
4 881 916 926 894
4 870 906 916 881
4 853 890 906 870
4 974 1006 1022 990
4 956 988 1006 974
4 945 976 988 956
4 926 962 976 945
4 916 952 962 926
4 906 938 952 916
4 890 928 938 906
4 1006 1038 1053 1022
4 988 1023 1038 1006
4 976 1011 1023 988
4 962 997 1011 976
4 952 986 997 962
4 938 972 986 952
4 928 964 972 938
4 1038 1072 1085 1053
4 1023 1056 1072 1038
4 1011 1043 1056 1023
4 997 1031 1043 1011
4 986 1019 1031 997
4 972 1007 1019 986
4 964 998 1007 972
4 1072 1104 1118 1085
4 1056 1087 1104 1072
4 1043 1077 1087 1056
4 1031 1064 1077 1043
4 1019 1050 1064 1031
4 1007 1042 1050 1019
4 998 1035 1042 1007
4 1104 1137 1152 1118
4 1087 1122 1137 1104
4 1077 1110 1122 1087
4 1064 1098 1110 1077
4 1050 1086 1098 1064
4 1042 1079 1086 1050
4 1035 1069 1079 1042
4 1137 1171 1184 1152
4 1122 1155 1171 1137
4 1110 1145 1155 1122
4 1098 1134 1145 1110
4 1086 1121 1134 1098
4 1079 1112 1121 1086
4 1069 1105 1112 1079
4 1171 1202 1215 1184
4 1155 1189 1202 1171
4 1145 1179 1189 1155
4 1134 1164 1179 1145
4 1121 1156 1164 1134
4 1112 1146 1156 1121
4 1105 1140 1146 1112
4 1202 1235 1249 1215
4 1189 1223 1235 1202
4 1179 1212 1223 1189
4 1164 1199 1212 1179
4 1156 1191 1199 1164
4 1146 1181 1191 1156
4 1140 1175 1181 1146
4 1235 1270 1283 1249
4 1223 1256 1270 1235
4 1212 1245 1256 1223
4 1199 1234 1245 1212
4 1191 1226 1234 1199
4 1181 1216 1226 1191
4 1175 1209 1216 1181
4 1270 1302 1314 1283
4 1256 1290 1302 1270
4 1245 1280 1290 1256
4 1234 1268 1280 1245
4 1226 1261 1268 1234
4 1216 1252 1261 1226
4 1209 1244 1252 1216
4 1302 1335 1348 1314
4 1290 1323 1335 1302
4 1280 1312 1323 1290
4 1268 1305 1312 1280
4 1261 1294 1305 1268
4 1252 1286 1294 1261
4 1244 1277 1286 1252
4 1335 1369 1381 1348
4 1323 1357 1369 1335
4 1312 1347 1357 1323
4 1305 1338 1347 1312
4 1294 1329 1338 1305
4 1286 1321 1329 1294
4 1277 1313 1321 1286
4 1369 1402 1415 1381
4 1357 1391 1402 1369
4 1347 1383 1391 1357
4 1338 1373 1383 1347
4 1329 1363 1373 1338
4 1321 1355 1363 1329
4 1313 1349 1355 1321
4 1402 1436 1450 1415
4 1391 1424 1436 1402
4 1383 1417 1424 1391
4 1373 1409 1417 1383
4 1363 1397 1409 1373
4 1355 1389 1397 1363
4 1349 1384 1389 1355
4 1436 1470 1483 1450
4 1424 1456 1470 1436
4 1417 1452 1456 1424
4 1409 1442 1452 1417
4 1397 1431 1442 1409
4 1389 1423 1431 1397
4 1384 1419 1423 1389
4 1470 1502 1518 1483
4 1456 1491 1502 1470
4 1452 1487 1491 1456
4 1442 1478 1487 1452
4 1431 1465 1478 1442
4 1423 1458 1465 1431
4 1419 1454 1458 1423
4 1502 1535 1550 1518
4 1491 1526 1535 1502
4 1487 1522 1526 1491
4 1478 1512 1522 1487
4 1465 1500 1512 1478
4 1458 1493 1500 1465
4 1454 1488 1493 1458
4 1535 1569 1585 1550
4 1526 1561 1569 1535
4 1522 1554 1561 1526
4 1512 1546 1554 1522
4 1500 1534 1546 1512
4 1493 1528 1534 1500
4 1488 1524 1528 1493
4 1569 1601 1618 1585
4 1561 1596 1601 1569
4 1554 1590 1596 1561
4 1546 1581 1590 1554
4 1534 1567 1581 1546
4 1528 1563 1567 1534
4 1524 1559 1563 1528
4 1601 1636 1652 1618
4 1596 1630 1636 1601
4 1590 1624 1630 1596
4 1581 1614 1624 1590
4 1567 1602 1614 1581
4 1563 1598 1602 1567
4 1559 1594 1598 1563
4 1636 1671 1685 1652
4 1630 1665 1671 1636
4 1624 1658 1665 1630
4 1614 1649 1658 1624
4 1602 1637 1649 1614
4 1598 1633 1637 1602
4 1594 1629 1633 1598
4 1671 1705 1719 1685
4 1665 1700 1705 1671
4 1658 1694 1700 1665
4 1649 1683 1694 1658
4 1637 1672 1683 1649
4 1633 1668 1672 1637
4 1629 1664 1668 1633
4 1705 1740 1746 1719
4 1700 1733 1740 1705
4 1694 1728 1733 1700
4 1683 1717 1728 1694
4 1672 1707 1717 1683
4 1668 1703 1707 1672
4 1664 1699 1703 1668
4 1740 1775 1781 1746
4 1733 1768 1775 1740
4 1728 1762 1768 1733
4 1717 1750 1762 1728
4 1707 1743 1750 1717
4 1703 1739 1743 1707
4 1699 1736 1739 1703
4 1775 1810 1814 1781
4 1768 1803 1810 1775
4 1762 1797 1803 1768
4 1750 1783 1797 1762
4 1743 1777 1783 1750
4 1739 1773 1777 1743
4 1736 1770 1773 1739
4 1810 1844 1849 1814
4 1803 1837 1844 1810
4 1797 1831 1837 1803
4 1783 1818 1831 1797
4 1777 1812 1818 1783
4 1773 1808 1812 1777
4 1770 1805 1808 1773
4 1844 1879 1884 1849
4 1837 1872 1879 1844
4 1831 1866 1872 1837
4 1818 1853 1866 1831
4 1812 1847 1853 1818
4 1808 1843 1847 1812
4 1805 1840 1843 1808
4 1879 1913 1918 1884
4 1872 1907 1913 1879
4 1866 1899 1907 1872
4 1853 1888 1899 1866
4 1847 1882 1888 1853
4 1843 1878 1882 1847
4 1840 1875 1878 1843
4 1913 1947 1953 1918
4 1907 1940 1947 1913
4 1899 1932 1940 1907
4 1888 1923 1932 1899
4 1882 1917 1923 1888
4 1878 1914 1917 1882
4 1875 1910 1914 1878
4 1947 1982 1988 1953
4 1940 1975 1982 1947
4 1932 1966 1975 1940
4 1923 1958 1966 1932
4 1917 1952 1958 1923
4 1914 1949 1952 1917
4 1910 1945 1949 1914
4 1982 2017 2023 1988
4 1975 2010 2017 1982
4 1966 2000 2010 1975
4 1958 1993 2000 1966
4 1952 1987 1993 1958
4 1949 1984 1987 1952
4 1945 1979 1984 1949
4 2017 2052 2056 2023
4 2010 2044 2052 2017
4 2000 2035 2044 2010
4 1993 2027 2035 2000
4 1987 2022 2027 1993
4 1984 2020 2022 1987
4 1979 2015 2020 1984
4 2052 2086 2091 2056
4 2044 2078 2086 2052
4 2035 2069 2078 2044
4 2027 2063 2069 2035
4 2022 2057 2063 2027
4 2020 2054 2057 2022
4 2015 2050 2054 2020
4 2086 2121 2126 2091
4 2078 2111 2121 2086
4 2069 2104 2111 2078
4 2063 2097 2104 2069
4 2057 2092 2097 2063
4 2054 2089 2092 2057
4 2050 2085 2089 2054
4 2121 2155 2161 2126
4 2111 2144 2155 2121
4 2104 2137 2144 2111
4 2097 2131 2137 2104
4 2092 2127 2131 2097
4 2089 2124 2127 2092
4 2085 2120 2124 2089
4 2155 2189 2195 2161
4 2144 2179 2189 2155
4 2137 2172 2179 2144
4 2131 2166 2172 2137
4 2127 2162 2166 2131
4 2124 2159 2162 2127
4 2120 2156 2159 2124
4 2189 2224 2230 2195
4 2179 2214 2224 2189
4 2172 2207 2214 2179
4 2166 2202 2207 2172
4 2162 2197 2202 2166
4 2159 2194 2197 2162
4 2156 2190 2194 2159
4 2224 2258 2265 2230
4 2214 2249 2258 2224
4 2207 2242 2249 2214
4 2202 2237 2242 2207
4 2197 2232 2237 2202
4 2194 2229 2232 2197
4 2190 2225 2229 2194
4 2258 2292 2300 2265
4 2249 2283 2292 2258
4 2242 2277 2283 2249
4 2237 2271 2277 2242
4 2232 2267 2271 2237
4 2229 2263 2267 2232
4 2225 2260 2263 2229
4 2292 2327 2334 2300
4 2283 2318 2327 2292
4 2277 2312 2318 2283
4 2271 2306 2312 2277
4 2267 2302 2306 2271
4 2263 2298 2302 2267
4 2260 2296 2298 2263
4 2327 2359 2368 2334
4 2318 2353 2359 2327
4 2312 2347 2353 2318
4 2306 2342 2347 2312
4 2302 2336 2342 2306
4 2298 2333 2336 2302
4 2296 2331 2333 2298
4 2359 2393 2402 2368
4 2353 2387 2393 2359
4 2347 2382 2387 2353
4 2342 2376 2382 2347
4 2336 2371 2376 2342
4 2333 2369 2371 2336
4 2331 2365 2369 2333
4 2393 2428 2437 2402
4 2387 2422 2428 2393
4 2382 2417 2422 2387
4 2376 2411 2417 2382
4 2371 2406 2411 2376
4 2369 2404 2406 2371
4 2365 2400 2404 2369
4 2428 2463 2471 2437
4 2422 2457 2463 2428
4 2417 2452 2457 2422
4 2411 2446 2452 2417
4 2406 2441 2446 2411
4 2404 2439 2441 2406
4 2400 2435 2439 2404
4 2463 2498 2506 2471
4 2457 2491 2498 2463
4 2452 2486 2491 2457
4 2446 2480 2486 2452
4 2441 2476 2480 2446
4 2439 2473 2476 2441
4 2435 2469 2473 2439
4 2498 2533 2540 2506
4 2491 2526 2533 2498
4 2486 2521 2526 2491
4 2480 2516 2521 2486
4 2476 2511 2516 2480
4 2473 2508 2511 2476
4 2469 2504 2508 2473
4 2533 2567 2574 2540
4 2526 2559 2567 2533
4 2521 2556 2559 2526
4 2516 2551 2556 2521
4 2511 2545 2551 2516
4 2508 2543 2545 2511
4 2504 2538 2543 2508
4 2567 2602 2606 2574
4 2559 2594 2602 2567
4 2556 2591 2594 2559
4 2551 2586 2591 2556
4 2545 2580 2586 2551
4 2543 2578 2580 2545
4 2538 2573 2578 2543
4 2602 2637 2641 2606
4 2594 2629 2637 2602
4 2591 2626 2629 2594
4 2586 2621 2626 2591
4 2580 2615 2621 2586
4 2578 2612 2615 2580
4 2573 2607 2612 2578
4 2637 2672 2676 2641
4 2629 2664 2672 2637
4 2626 2661 2664 2629
4 2621 2654 2661 2626
4 2615 2650 2654 2621
4 2612 2647 2650 2615
4 2607 2642 2647 2612
4 2672 2706 2711 2676
4 2664 2699 2706 2672
4 2661 2696 2699 2664
4 2654 2690 2696 2661
4 2650 2685 2690 2654
4 2647 2682 2685 2650
4 2642 2677 2682 2647
4 2706 2741 2746 2711
4 2699 2734 2741 2706
4 2696 2730 2734 2699
4 2690 2724 2730 2696
4 2685 2720 2724 2690
4 2682 2716 2720 2685
4 2677 2712 2716 2682
4 2741 2776 2781 2746
4 2734 2769 2776 2741
4 2730 2765 2769 2734
4 2724 2760 2765 2730
4 2720 2754 2760 2724
4 2716 2751 2754 2720
4 2712 2747 2751 2716
4 2776 2811 2816 2781
4 2769 2804 2811 2776
4 2765 2800 2804 2769
4 2760 2794 2800 2765
4 2754 2789 2794 2760
4 2751 2786 2789 2754
4 2747 2782 2786 2751
4 2811 2845 2850 2816
4 2804 2839 2845 2811
4 2800 2835 2839 2804
4 2794 2830 2835 2800
4 2789 2824 2830 2794
4 2786 2820 2824 2789
4 2782 2817 2820 2786
4 2845 2880 2885 2850
4 2839 2873 2880 2845
4 2835 2870 2873 2839
4 2830 2864 2870 2835
4 2824 2859 2864 2830
4 2820 2854 2859 2824
4 2817 2852 2854 2820
4 2880 2914 2920 2885
4 2873 2908 2914 2880
4 2870 2905 2908 2873
4 2864 2899 2905 2870
4 2859 2893 2899 2864
4 2854 2888 2893 2859
4 2852 2887 2888 2854
4 2914 2949 2955 2920
4 2908 2943 2949 2914
4 2905 2940 2943 2908
4 2899 2933 2940 2905
4 2893 2928 2933 2899
4 2888 2923 2928 2893
4 2887 2922 2923 2888
4 2949 2983 2990 2955
4 2943 2978 2983 2949
4 2940 2974 2978 2943
4 2933 2968 2974 2940
4 2928 2963 2968 2933
4 2923 2958 2963 2928
4 2922 2957 2958 2923
4 2983 3017 3025 2990
4 2978 3013 3017 2983
4 2974 3010 3013 2978
4 2968 3004 3010 2974
4 2963 2998 3004 2968
4 2958 2993 2998 2963
4 2957 2992 2993 2958
4 3017 3052 3059 3025
4 3013 3048 3052 3017
4 3010 3044 3048 3013
4 3004 3039 3044 3010
4 2998 3032 3039 3004
4 2993 3028 3032 2998
4 2992 3027 3028 2993
4 3052 3087 3094 3059
4 3048 3083 3087 3052
4 3044 3079 3083 3048
4 3039 3074 3079 3044
4 3032 3067 3074 3039
4 3028 3063 3067 3032
4 3027 3062 3063 3028
4 3087 3122 3129 3094
4 3083 3118 3122 3087
4 3079 3114 3118 3083
4 3074 3108 3114 3079
4 3067 3102 3108 3074
4 3063 3098 3102 3067
4 3062 3097 3098 3063
4 3122 3157 3164 3129
4 3118 3153 3157 3122
4 3114 3148 3153 3118
4 3108 3142 3148 3114
4 3102 3136 3142 3108
4 3098 3133 3136 3102
4 3097 3132 3133 3098
4 3157 3192 3198 3164
4 3153 3187 3192 3157
4 3148 3183 3187 3153
4 3142 3177 3183 3148
4 3136 3169 3177 3142
4 3133 3168 3169 3136
4 3132 3167 3168 3133
4 3192 3227 3233 3198
4 3187 3222 3227 3192
4 3183 3219 3222 3187
4 3177 3213 3219 3183
4 3169 3204 3213 3177
4 3168 3203 3204 3169
4 3167 3202 3203 3168
4 3227 3262 3268 3233
4 3222 3257 3262 3227
4 3219 3253 3257 3222
4 3213 3246 3253 3219
4 3204 3239 3246 3213
4 3203 3238 3239 3204
4 3202 3237 3238 3203
4 3262 3297 3302 3268
4 3257 3292 3297 3262
4 3253 3288 3292 3257
4 3246 3282 3288 3253
4 3239 3274 3282 3246
4 3238 3273 3274 3239
4 3237 3272 3273 3238
4 3297 3331 3337 3302
4 3292 3327 3331 3297
4 3288 3323 3327 3292
4 3282 3317 3323 3288
4 3274 3309 3317 3282
4 3273 3308 3309 3274
4 3272 3307 3308 3273
4 3331 3366 3372 3337
4 3327 3362 3366 3331
4 3323 3357 3362 3327
4 3317 3351 3357 3323
4 3309 3344 3351 3317
4 3308 3343 3344 3309
4 3307 3342 3343 3308
4 3366 3401 3406 3372
4 3362 3397 3401 3366
4 3357 3393 3397 3362
4 3351 3386 3393 3357
4 3344 3379 3386 3351
4 3343 3378 3379 3344
4 3342 3377 3378 3343
4 3401 3436 3440 3406
4 3397 3431 3436 3401
4 3393 3427 3431 3397
4 3386 3420 3427 3393
4 3379 3414 3420 3386
4 3378 3413 3414 3379
4 3377 3412 3413 3378
4 3436 3471 3474 3440
4 3431 3466 3471 3436
4 3427 3462 3466 3431
4 3420 3455 3462 3427
4 3414 3449 3455 3420
4 3413 3448 3449 3414
4 3412 3447 3448 3413
4 3471 3506 3509 3474
4 3466 3501 3506 3471
4 3462 3497 3501 3466
4 3455 3489 3497 3462
4 3449 3484 3489 3455
4 3448 3483 3484 3449
4 3447 3482 3483 3448
4 3506 3548 3555 3509
4 3501 3539 3548 3506
4 3497 3533 3539 3501
4 3489 3526 3533 3497
4 3484 3520 3526 3489
4 3483 3518 3520 3484
4 3482 3517 3518 3483
4 141 144 161 159
4 124 129 144 141
4 111 115 129 124
4 102 105 115 111
4 95 97 105 102
4 91 93 97 95
4 86 92 93 91
4 144 146 166 161
4 129 132 146 144
4 115 119 132 129
4 105 108 119 115
4 97 101 108 105
4 93 98 101 97
4 92 96 98 93
4 146 151 170 166
4 132 138 151 146
4 119 127 138 132
4 108 118 127 119
4 101 109 118 108
4 98 106 109 101
4 96 103 106 98
4 151 164 179 170
4 138 148 164 151
4 127 137 148 138
4 118 128 137 127
4 109 120 128 118
4 106 116 120 109
4 103 112 116 106
4 164 173 193 179
4 148 163 173 164
4 137 149 163 148
4 128 139 149 137
4 120 133 139 128
4 116 130 133 120
4 112 125 130 116
4 173 189 206 193
4 163 174 189 173
4 149 165 174 163
4 139 152 165 149
4 133 147 152 139
4 130 145 147 133
4 125 142 145 130
4 189 208 223 206
4 174 194 208 189
4 165 181 194 174
4 152 171 181 165
4 147 167 171 152
4 145 162 167 147
4 142 160 162 145
4 208 230 256 223
4 194 210 230 208
4 181 197 210 194
4 171 190 197 181
4 167 184 190 171
4 162 182 184 167
4 160 177 182 162
4 230 266 292 256
4 210 247 266 230
4 197 221 247 210
4 190 213 221 197
4 184 209 213 190
4 182 203 209 184
4 177 200 203 182
4 266 306 333 292
4 247 285 306 266
4 221 264 285 247
4 213 252 264 221
4 209 237 252 213
4 203 232 237 209
4 200 228 232 203
4 306 344 373 333
4 285 324 344 306
4 264 308 324 285
4 252 291 308 264
4 237 279 291 252
4 232 275 279 237
4 228 271 275 232
4 344 393 413 373
4 324 372 393 344
4 308 353 372 324
4 291 340 353 308
4 279 332 340 291
4 275 322 332 279
4 271 316 322 275
4 393 442 458 413
4 372 420 442 393
4 353 406 420 372
4 340 391 406 353
4 332 381 391 340
4 322 378 381 332
4 316 368 378 322
4 442 482 503 458
4 420 463 482 442
4 406 450 463 420
4 391 444 450 406
4 381 433 444 391
4 378 428 433 381
4 368 425 428 378
4 482 521 538 503
4 463 508 521 482
4 450 494 508 463
4 444 487 494 450
4 433 479 487 444
4 428 477 479 433
4 425 469 477 428
4 521 558 574 538
4 508 546 558 521
4 494 536 546 508
4 487 525 536 494
4 479 516 525 487
4 477 513 516 479
4 469 511 513 477
4 558 597 608 574
4 546 584 597 558
4 536 575 584 546
4 525 567 575 536
4 516 560 567 525
4 513 557 560 516
4 511 552 557 513
4 597 632 646 608
4 584 622 632 597
4 575 612 622 584
4 567 604 612 575
4 560 601 604 567
4 557 599 601 560
4 552 593 599 557
4 632 669 682 646
4 622 657 669 632
4 612 648 657 622
4 604 643 648 612
4 601 637 643 604
4 599 635 637 601
4 593 634 635 599
4 669 706 717 682
4 657 697 706 669
4 648 686 697 657
4 643 681 686 648
4 637 677 681 643
4 635 675 677 637
4 634 672 675 635
4 706 740 752 717
4 697 734 740 706
4 686 724 734 697
4 681 719 724 686
4 677 715 719 681
4 675 711 715 677
4 672 709 711 675
4 740 773 787 752
4 734 769 773 740
4 724 762 769 734
4 719 755 762 724
4 715 751 755 719
4 711 748 751 715
4 709 746 748 711
4 773 812 822 787
4 769 805 812 773
4 762 800 805 769
4 755 792 800 762
4 751 788 792 755
4 748 785 788 751
4 746 782 785 748
4 812 848 853 822
4 805 842 848 812
4 800 836 842 805
4 792 829 836 800
4 788 824 829 792
4 785 819 824 788
4 782 817 819 785
4 848 883 890 853
4 842 878 883 848
4 836 873 878 842
4 829 867 873 836
4 824 862 867 829
4 819 857 862 824
4 817 854 857 819
4 883 920 928 890
4 878 914 920 883
4 873 907 914 878
4 867 901 907 873
4 862 898 901 867
4 857 895 898 862
4 854 892 895 857
4 920 953 964 928
4 914 949 953 920
4 907 943 949 914
4 901 937 943 907
4 898 933 937 901
4 895 932 933 898
4 892 930 932 895
4 953 989 998 964
4 949 984 989 953
4 943 977 984 949
4 937 973 977 943
4 933 970 973 937
4 932 968 970 933
4 930 966 968 932
4 989 1025 1035 998
4 984 1020 1025 989
4 977 1013 1020 984
4 973 1009 1013 977
4 970 1005 1009 973
4 968 1004 1005 970
4 966 1002 1004 968
4 1025 1060 1069 1035
4 1020 1052 1060 1025
4 1013 1049 1052 1020
4 1009 1046 1049 1013
4 1005 1041 1046 1009
4 1004 1040 1041 1005
4 1002 1039 1040 1004
4 1060 1096 1105 1069
4 1052 1089 1096 1060
4 1049 1084 1089 1052
4 1046 1081 1084 1049
4 1041 1080 1081 1046
4 1040 1078 1080 1041
4 1039 1074 1078 1040
4 1096 1130 1140 1105
4 1089 1124 1130 1096
4 1084 1120 1124 1089
4 1081 1117 1120 1084
4 1080 1115 1117 1081
4 1078 1114 1115 1080
4 1074 1111 1114 1078
4 1130 1166 1175 1140
4 1124 1159 1166 1130
4 1120 1154 1159 1124
4 1117 1153 1154 1120
4 1115 1150 1153 1117
4 1114 1148 1150 1115
4 1111 1147 1148 1114
4 1166 1201 1209 1175
4 1159 1194 1201 1166
4 1154 1192 1194 1159
4 1153 1188 1192 1154
4 1150 1186 1188 1153
4 1148 1185 1186 1150
4 1147 1182 1185 1148
4 1201 1238 1244 1209
4 1194 1230 1238 1201
4 1192 1227 1230 1194
4 1188 1224 1227 1192
4 1186 1221 1224 1188
4 1185 1220 1221 1186
4 1182 1219 1220 1185
4 1238 1272 1277 1244
4 1230 1266 1272 1238
4 1227 1262 1266 1230
4 1224 1259 1262 1227
4 1221 1257 1259 1224
4 1220 1255 1257 1221
4 1219 1254 1255 1220
4 1272 1308 1313 1277
4 1266 1303 1308 1272
4 1262 1298 1303 1266
4 1259 1295 1298 1262
4 1257 1293 1295 1259
4 1255 1291 1293 1257
4 1254 1288 1291 1255
4 1308 1343 1349 1313
4 1303 1339 1343 1308
4 1298 1333 1339 1303
4 1295 1330 1333 1298
4 1293 1328 1330 1295
4 1291 1326 1328 1293
4 1288 1325 1326 1291
4 1343 1379 1384 1349
4 1339 1375 1379 1343
4 1333 1368 1375 1339
4 1330 1366 1368 1333
4 1328 1364 1366 1330
4 1326 1361 1364 1328
4 1325 1360 1361 1326
4 1379 1414 1419 1384
4 1375 1410 1414 1379
4 1368 1403 1410 1375
4 1366 1401 1403 1368
4 1364 1398 1401 1366
4 1361 1396 1398 1364
4 1360 1395 1396 1361
4 1414 1449 1454 1419
4 1410 1446 1449 1414
4 1403 1440 1446 1410
4 1401 1437 1440 1403
4 1398 1434 1437 1401
4 1396 1433 1434 1398
4 1395 1432 1433 1396
4 1449 1485 1488 1454
4 1446 1481 1485 1449
4 1440 1476 1481 1446
4 1437 1471 1476 1440
4 1434 1469 1471 1437
4 1433 1467 1469 1434
4 1432 1466 1467 1433
4 1485 1519 1524 1488
4 1481 1516 1519 1485
4 1476 1513 1516 1481
4 1471 1506 1513 1476
4 1469 1505 1506 1471
4 1467 1503 1505 1469
4 1466 1501 1503 1467
4 1519 1556 1559 1524
4 1516 1553 1556 1519
4 1513 1548 1553 1516
4 1506 1543 1548 1513
4 1505 1539 1543 1506
4 1503 1538 1539 1505
4 1501 1537 1538 1503
4 1556 1591 1594 1559
4 1553 1587 1591 1556
4 1548 1583 1587 1553
4 1543 1579 1583 1548
4 1539 1575 1579 1543
4 1538 1573 1575 1539
4 1537 1571 1573 1538
4 1591 1626 1629 1594
4 1587 1622 1626 1591
4 1583 1619 1622 1587
4 1579 1615 1619 1583
4 1575 1610 1615 1579
4 1573 1608 1610 1575
4 1571 1607 1608 1573
4 1626 1661 1664 1629
4 1622 1657 1661 1626
4 1619 1654 1657 1622
4 1615 1650 1654 1619
4 1610 1646 1650 1615
4 1608 1643 1646 1610
4 1607 1642 1643 1608
4 1661 1696 1699 1664
4 1657 1692 1696 1661
4 1654 1689 1692 1657
4 1650 1686 1689 1654
4 1646 1681 1686 1650
4 1643 1677 1681 1646
4 1642 1676 1677 1643
4 1696 1732 1736 1699
4 1692 1729 1732 1696
4 1689 1725 1729 1692
4 1686 1722 1725 1689
4 1681 1718 1722 1686
4 1677 1714 1718 1681
4 1676 1712 1714 1677
4 1732 1766 1770 1736
4 1729 1763 1766 1732
4 1725 1759 1763 1729
4 1722 1756 1759 1725
4 1718 1753 1756 1722
4 1714 1751 1753 1718
4 1712 1747 1751 1714
4 1766 1801 1805 1770
4 1763 1798 1801 1766
4 1759 1794 1798 1763
4 1756 1791 1794 1759
4 1753 1788 1791 1756
4 1751 1785 1788 1753
4 1747 1784 1785 1751
4 1801 1836 1840 1805
4 1798 1833 1836 1801
4 1794 1829 1833 1798
4 1791 1825 1829 1794
4 1788 1822 1825 1791
4 1785 1820 1822 1788
4 1784 1819 1820 1785
4 1836 1871 1875 1840
4 1833 1868 1871 1836
4 1829 1863 1868 1833
4 1825 1861 1863 1829
4 1822 1857 1861 1825
4 1820 1856 1857 1822
4 1819 1854 1856 1820
4 1871 1906 1910 1875
4 1868 1902 1906 1871
4 1863 1900 1902 1868
4 1861 1894 1900 1863
4 1857 1892 1894 1861
4 1856 1891 1892 1857
4 1854 1890 1891 1856
4 1906 1941 1945 1910
4 1902 1938 1941 1906
4 1900 1935 1938 1902
4 1894 1929 1935 1900
4 1892 1928 1929 1894
4 1891 1926 1928 1892
4 1890 1925 1926 1891
4 1941 1977 1979 1945
4 1938 1973 1977 1941
4 1935 1969 1973 1938
4 1929 1964 1969 1935
4 1928 1963 1964 1929
4 1926 1962 1963 1928
4 1925 1960 1962 1926
4 1977 2012 2015 1979
4 1973 2008 2012 1977
4 1969 2004 2008 1973
4 1964 2001 2004 1969
4 1963 1998 2001 1964
4 1962 1997 1998 1963
4 1960 1996 1997 1962
4 2012 2047 2050 2015
4 2008 2042 2047 2012
4 2004 2037 2042 2008
4 2001 2036 2037 2004
4 1998 2033 2036 2001
4 1997 2032 2033 1998
4 1996 2031 2032 1997
4 2047 2082 2085 2050
4 2042 2077 2082 2047
4 2037 2073 2077 2042
4 2036 2071 2073 2037
4 2033 2070 2071 2036
4 2032 2067 2070 2033
4 2031 2066 2067 2032
4 2082 2116 2120 2085
4 2077 2112 2116 2082
4 2073 2108 2112 2077
4 2071 2106 2108 2073
4 2070 2105 2106 2071
4 2067 2102 2105 2070
4 2066 2101 2102 2067
4 2116 2151 2156 2120
4 2112 2148 2151 2116
4 2108 2143 2148 2112
4 2106 2141 2143 2108
4 2105 2140 2141 2106
4 2102 2139 2140 2105
4 2101 2138 2139 2102
4 2151 2186 2190 2156
4 2148 2182 2186 2151
4 2143 2178 2182 2148
4 2141 2176 2178 2143
4 2140 2175 2176 2141
4 2139 2174 2175 2140
4 2138 2173 2174 2139
4 2186 2221 2225 2190
4 2182 2216 2221 2186
4 2178 2213 2216 2182
4 2176 2212 2213 2178
4 2175 2210 2212 2176
4 2174 2209 2210 2175
4 2173 2208 2209 2174
4 2221 2256 2260 2225
4 2216 2251 2256 2221
4 2213 2248 2251 2216
4 2212 2247 2248 2213
4 2210 2245 2247 2212
4 2209 2244 2245 2210
4 2208 2243 2244 2209
4 2256 2291 2296 2260
4 2251 2286 2291 2256
4 2248 2285 2286 2251
4 2247 2282 2285 2248
4 2245 2281 2282 2247
4 2244 2279 2281 2245
4 2243 2278 2279 2244
4 2291 2325 2331 2296
4 2286 2321 2325 2291
4 2285 2320 2321 2286
4 2282 2317 2320 2285
4 2281 2316 2317 2282
4 2279 2315 2316 2281
4 2278 2313 2315 2279
4 2325 2360 2365 2331
4 2321 2356 2360 2325
4 2320 2355 2356 2321
4 2317 2352 2355 2320
4 2316 2351 2352 2317
4 2315 2350 2351 2316
4 2313 2349 2350 2315
4 2360 2394 2400 2365
4 2356 2392 2394 2360
4 2355 2390 2392 2356
4 2352 2388 2390 2355
4 2351 2386 2388 2352
4 2350 2385 2386 2351
4 2349 2384 2385 2350
4 2394 2429 2435 2400
4 2392 2427 2429 2394
4 2390 2425 2427 2392
4 2388 2424 2425 2390
4 2386 2421 2424 2388
4 2385 2420 2421 2386
4 2384 2419 2420 2385
4 2429 2464 2469 2435
4 2427 2462 2464 2429
4 2425 2460 2462 2427
4 2424 2459 2460 2425
4 2421 2456 2459 2424
4 2420 2455 2456 2421
4 2419 2454 2455 2420
4 2464 2499 2504 2469
4 2462 2497 2499 2464
4 2460 2495 2497 2462
4 2459 2494 2495 2460
4 2456 2492 2494 2459
4 2455 2490 2492 2456
4 2454 2489 2490 2455
4 2499 2535 2538 2504
4 2497 2532 2535 2499
4 2495 2530 2532 2497
4 2494 2529 2530 2495
4 2492 2528 2529 2494
4 2490 2525 2528 2492
4 2489 2524 2525 2490
4 2535 2570 2573 2538
4 2532 2568 2570 2535
4 2530 2566 2568 2532
4 2529 2564 2566 2530
4 2528 2563 2564 2529
4 2525 2562 2563 2528
4 2524 2560 2562 2525
4 2570 2605 2607 2573
4 2568 2603 2605 2570
4 2566 2601 2603 2568
4 2564 2599 2601 2566
4 2563 2598 2599 2564
4 2562 2597 2598 2563
4 2560 2596 2597 2562
4 2605 2640 2642 2607
4 2603 2638 2640 2605
4 2601 2636 2638 2603
4 2599 2634 2636 2601
4 2598 2633 2634 2599
4 2597 2632 2633 2598
4 2596 2631 2632 2597
4 2640 2675 2677 2642
4 2638 2673 2675 2640
4 2636 2671 2673 2638
4 2634 2670 2671 2636
4 2633 2668 2670 2634
4 2632 2667 2668 2633
4 2631 2666 2667 2632
4 2675 2710 2712 2677
4 2673 2709 2710 2675
4 2671 2707 2709 2673
4 2670 2705 2707 2671
4 2668 2703 2705 2670
4 2667 2702 2703 2668
4 2666 2701 2702 2667
4 2710 2745 2747 2712
4 2709 2744 2745 2710
4 2707 2742 2744 2709
4 2705 2740 2742 2707
4 2703 2738 2740 2705
4 2702 2737 2738 2703
4 2701 2736 2737 2702
4 2745 2780 2782 2747
4 2744 2779 2780 2745
4 2742 2777 2779 2744
4 2740 2775 2777 2742
4 2738 2774 2775 2740
4 2737 2772 2774 2738
4 2736 2771 2772 2737
4 2780 2815 2817 2782
4 2779 2814 2815 2780
4 2777 2812 2814 2779
4 2775 2810 2812 2777
4 2774 2809 2810 2775
4 2772 2808 2809 2774
4 2771 2806 2808 2772
4 2815 2851 2852 2817
4 2814 2849 2851 2815
4 2812 2848 2849 2814
4 2810 2846 2848 2812
4 2809 2844 2846 2810
4 2808 2843 2844 2809
4 2806 2842 2843 2808
4 2851 2886 2887 2852
4 2849 2884 2886 2851
4 2848 2883 2884 2849
4 2846 2881 2883 2848
4 2844 2879 2881 2846
4 2843 2878 2879 2844
4 2842 2877 2878 2843
4 2886 2921 2922 2887
4 2884 2919 2921 2886
4 2883 2918 2919 2884
4 2881 2916 2918 2883
4 2879 2915 2916 2881
4 2878 2913 2915 2879
4 2877 2912 2913 2878
4 2921 2956 2957 2922
4 2919 2954 2956 2921
4 2918 2953 2954 2919
4 2916 2951 2953 2918
4 2915 2950 2951 2916
4 2913 2948 2950 2915
4 2912 2947 2948 2913
4 2956 2991 2992 2957
4 2954 2989 2991 2956
4 2953 2988 2989 2954
4 2951 2987 2988 2953
4 2950 2985 2987 2951
4 2948 2984 2985 2950
4 2947 2982 2984 2948
4 2991 3026 3027 2992
4 2989 3024 3026 2991
4 2988 3023 3024 2989
4 2987 3022 3023 2988
4 2985 3020 3022 2987
4 2984 3019 3020 2985
4 2982 3018 3019 2984
4 3026 3061 3062 3027
4 3024 3060 3061 3026
4 3023 3058 3060 3024
4 3022 3057 3058 3023
4 3020 3056 3057 3022
4 3019 3054 3056 3020
4 3018 3053 3054 3019
4 3061 3096 3097 3062
4 3060 3095 3096 3061
4 3058 3093 3095 3060
4 3057 3092 3093 3058
4 3056 3091 3092 3057
4 3054 3089 3091 3056
4 3053 3088 3089 3054
4 3096 3131 3132 3097
4 3095 3130 3131 3096
4 3093 3128 3130 3095
4 3092 3127 3128 3093
4 3091 3126 3127 3092
4 3089 3125 3126 3091
4 3088 3123 3125 3089
4 3131 3166 3167 3132
4 3130 3165 3166 3131
4 3128 3163 3165 3130
4 3127 3162 3163 3128
4 3126 3161 3162 3127
4 3125 3160 3161 3126
4 3123 3159 3160 3125
4 3166 3201 3202 3167
4 3165 3200 3201 3166
4 3163 3199 3200 3165
4 3162 3197 3199 3163
4 3161 3196 3197 3162
4 3160 3195 3196 3161
4 3159 3194 3195 3160
4 3201 3236 3237 3202
4 3200 3235 3236 3201
4 3199 3234 3235 3200
4 3197 3232 3234 3199
4 3196 3231 3232 3197
4 3195 3230 3231 3196
4 3194 3229 3230 3195
4 3236 3271 3272 3237
4 3235 3270 3271 3236
4 3234 3269 3270 3235
4 3232 3267 3269 3234
4 3231 3266 3267 3232
4 3230 3265 3266 3231
4 3229 3264 3265 3230
4 3271 3306 3307 3272
4 3270 3305 3306 3271
4 3269 3304 3305 3270
4 3267 3303 3304 3269
4 3266 3301 3303 3267
4 3265 3300 3301 3266
4 3264 3299 3300 3265
4 3306 3341 3342 3307
4 3305 3340 3341 3306
4 3304 3339 3340 3305
4 3303 3338 3339 3304
4 3301 3336 3338 3303
4 3300 3335 3336 3301
4 3299 3334 3335 3300
4 3341 3376 3377 3342
4 3340 3375 3376 3341
4 3339 3374 3375 3340
4 3338 3373 3374 3339
4 3336 3371 3373 3338
4 3335 3370 3371 3336
4 3334 3369 3370 3335
4 3376 3411 3412 3377
4 3375 3410 3411 3376
4 3374 3409 3410 3375
4 3373 3408 3409 3374
4 3371 3407 3408 3373
4 3370 3405 3407 3371
4 3369 3404 3405 3370
4 3411 3446 3447 3412
4 3410 3445 3446 3411
4 3409 3444 3445 3410
4 3408 3443 3444 3409
4 3407 3442 3443 3408
4 3405 3441 3442 3407
4 3404 3439 3441 3405
4 3446 3481 3482 3447
4 3445 3480 3481 3446
4 3444 3479 3480 3445
4 3443 3478 3479 3444
4 3442 3477 3478 3443
4 3441 3476 3477 3442
4 3439 3475 3476 3441
4 3481 3516 3517 3482
4 3480 3515 3516 3481
4 3479 3514 3515 3480
4 3478 3513 3514 3479
4 3477 3512 3513 3478
4 3476 3511 3512 3477
4 3475 3510 3511 3476
4 71 73 92 86
4 56 58 73 71
4 43 46 58 56
4 33 35 46 43
4 22 26 35 33
4 73 75 96 92
4 58 63 75 73
4 46 50 63 58
4 35 37 50 46
4 26 28 37 35
4 75 81 103 96
4 63 66 81 75
4 50 52 66 63
4 37 41 52 50
4 28 31 41 37
4 81 83 112 103
4 66 70 83 81
4 52 59 70 66
4 41 48 59 52
4 31 39 48 41
4 83 100 125 112
4 70 80 100 83
4 59 67 80 70
4 48 54 67 59
4 39 45 54 48
4 100 114 142 125
4 80 88 114 100
4 67 76 88 80
4 54 64 76 67
4 45 55 64 54
4 114 135 160 142
4 88 110 135 114
4 76 85 110 88
4 64 77 85 76
4 55 68 77 64
4 135 153 177 160
4 110 131 153 135
4 85 107 131 110
4 77 89 107 85
4 68 79 89 77
4 153 175 200 177
4 131 155 175 153
4 107 136 155 131
4 89 117 136 107
4 79 99 117 89
4 175 201 228 200
4 155 178 201 175
4 136 158 178 155
4 117 140 158 136
4 99 126 140 117
4 201 236 271 228
4 178 204 236 201
4 158 187 204 178
4 140 169 187 158
4 126 156 169 140
4 236 286 316 271
4 204 248 286 236
4 187 214 248 204
4 169 198 214 187
4 156 185 198 169
4 286 338 368 316
4 248 302 338 286
4 214 267 302 248
4 198 242 267 214
4 185 215 242 198
4 338 387 425 368
4 302 354 387 338
4 267 323 354 302
4 242 299 323 267
4 215 274 299 242
4 387 445 469 425
4 354 410 445 387
4 323 382 410 354
4 299 355 382 323
4 274 337 355 299
4 445 488 511 469
4 410 460 488 445
4 382 438 460 410
4 355 412 438 382
4 337 394 412 355
4 488 535 552 511
4 460 510 535 488
4 438 489 510 460
4 412 472 489 438
4 394 455 472 412
4 535 576 593 552
4 510 550 576 535
4 489 537 550 510
4 472 519 537 489
4 455 504 519 472
4 576 615 634 593
4 550 598 615 576
4 537 580 598 550
4 519 565 580 537
4 504 548 565 519
4 615 652 672 634
4 598 636 652 615
4 580 621 636 598
4 565 605 621 580
4 548 594 605 565
4 652 692 709 672
4 636 679 692 652
4 621 664 679 636
4 605 651 664 621
4 594 640 651 605
4 692 730 746 709
4 679 716 730 692
4 664 701 716 679
4 651 687 701 664
4 640 680 687 651
4 730 770 782 746
4 716 756 770 730
4 701 741 756 716
4 687 731 741 701
4 680 721 731 687
4 770 806 817 782
4 756 794 806 770
4 741 780 794 756
4 731 772 780 741
4 721 763 772 731
4 806 845 854 817
4 794 834 845 806
4 780 816 834 794
4 772 809 816 780
4 763 803 809 772
4 845 882 892 854
4 834 871 882 845
4 816 855 871 834
4 809 849 855 816
4 803 841 849 809
4 882 919 930 892
4 871 908 919 882
4 855 896 908 871
4 849 886 896 855
4 841 880 886 849
4 919 954 966 930
4 908 946 954 919
4 896 934 946 908
4 886 922 934 896
4 880 918 922 886
4 954 992 1002 966
4 946 982 992 954
4 934 971 982 946
4 922 963 971 934
4 918 955 963 922
4 992 1028 1039 1002
4 982 1017 1028 992
4 971 1008 1017 982
4 963 1000 1008 971
4 955 994 1000 963
4 1028 1066 1074 1039
4 1017 1054 1066 1028
4 1008 1047 1054 1017
4 1000 1037 1047 1008
4 994 1032 1037 1000
4 1066 1103 1111 1074
4 1054 1090 1103 1066
4 1047 1083 1090 1054
4 1037 1073 1083 1047
4 1032 1070 1073 1037
4 1103 1138 1147 1111
4 1090 1125 1138 1103
4 1083 1119 1125 1090
4 1073 1113 1119 1083
4 1070 1107 1113 1073
4 1138 1174 1182 1147
4 1125 1161 1174 1138
4 1119 1157 1161 1125
4 1113 1149 1157 1119
4 1107 1143 1149 1113
4 1174 1211 1219 1182
4 1161 1200 1211 1174
4 1157 1193 1200 1161
4 1149 1187 1193 1157
4 1143 1180 1187 1149
4 1211 1246 1254 1219
4 1200 1236 1246 1211
4 1193 1228 1236 1200
4 1187 1222 1228 1193
4 1180 1217 1222 1187
4 1246 1282 1288 1254
4 1236 1273 1282 1246
4 1228 1264 1273 1236
4 1222 1260 1264 1228
4 1217 1253 1260 1222
4 1282 1317 1325 1288
4 1273 1310 1317 1282
4 1264 1301 1310 1273
4 1260 1296 1301 1264
4 1253 1289 1296 1260
4 1317 1353 1360 1325
4 1310 1345 1353 1317
4 1301 1340 1345 1310
4 1296 1332 1340 1301
4 1289 1327 1332 1296
4 1353 1386 1395 1360
4 1345 1380 1386 1353
4 1340 1376 1380 1345
4 1332 1367 1376 1340
4 1327 1362 1367 1332
4 1386 1421 1432 1395
4 1380 1418 1421 1386
4 1376 1412 1418 1380
4 1367 1405 1412 1376
4 1362 1400 1405 1367
4 1421 1459 1466 1432
4 1418 1453 1459 1421
4 1412 1448 1453 1418
4 1405 1444 1448 1412
4 1400 1435 1444 1405
4 1459 1494 1501 1466
4 1453 1490 1494 1459
4 1448 1484 1490 1453
4 1444 1479 1484 1448
4 1435 1472 1479 1444
4 1494 1529 1537 1501
4 1490 1525 1529 1494
4 1484 1520 1525 1490
4 1479 1515 1520 1484
4 1472 1510 1515 1479
4 1529 1564 1571 1537
4 1525 1560 1564 1529
4 1520 1557 1560 1525
4 1515 1551 1557 1520
4 1510 1547 1551 1515
4 1564 1600 1607 1571
4 1560 1595 1600 1564
4 1557 1592 1595 1560
4 1551 1588 1592 1557
4 1547 1584 1588 1551
4 1600 1635 1642 1607
4 1595 1632 1635 1600
4 1592 1628 1632 1595
4 1588 1623 1628 1592
4 1584 1620 1623 1588
4 1635 1670 1676 1642
4 1632 1667 1670 1635
4 1628 1663 1667 1632
4 1623 1660 1663 1628
4 1620 1656 1660 1623
4 1670 1706 1712 1676
4 1667 1702 1706 1670
4 1663 1698 1702 1667
4 1660 1695 1698 1663
4 1656 1691 1695 1660
4 1706 1741 1747 1712
4 1702 1737 1741 1706
4 1698 1734 1737 1702
4 1695 1730 1734 1698
4 1691 1726 1730 1695
4 1741 1778 1784 1747
4 1737 1774 1778 1741
4 1734 1771 1774 1737
4 1730 1767 1771 1734
4 1726 1764 1767 1730
4 1778 1813 1819 1784
4 1774 1809 1813 1778
4 1771 1806 1809 1774
4 1767 1802 1806 1771
4 1764 1799 1802 1767
4 1813 1848 1854 1819
4 1809 1845 1848 1813
4 1806 1841 1845 1809
4 1802 1838 1841 1806
4 1799 1835 1838 1802
4 1848 1883 1890 1854
4 1845 1880 1883 1848
4 1841 1877 1880 1845
4 1838 1874 1877 1841
4 1835 1870 1874 1838
4 1883 1919 1925 1890
4 1880 1916 1919 1883
4 1877 1912 1916 1880
4 1874 1909 1912 1877
4 1870 1905 1909 1874
4 1919 1954 1960 1925
4 1916 1951 1954 1919
4 1912 1948 1951 1916
4 1909 1944 1948 1912
4 1905 1943 1944 1909
4 1954 1989 1996 1960
4 1951 1986 1989 1954
4 1948 1983 1986 1951
4 1944 1980 1983 1948
4 1943 1978 1980 1944
4 1989 2025 2031 1996
4 1986 2021 2025 1989
4 1983 2018 2021 1986
4 1980 2016 2018 1983
4 1978 2013 2016 1980
4 2025 2061 2066 2031
4 2021 2058 2061 2025
4 2018 2055 2058 2021
4 2016 2051 2055 2018
4 2013 2048 2051 2016
4 2061 2098 2101 2066
4 2058 2093 2098 2061
4 2055 2090 2093 2058
4 2051 2087 2090 2055
4 2048 2084 2087 2051
4 2098 2133 2138 2101
4 2093 2128 2133 2098
4 2090 2125 2128 2093
4 2087 2122 2125 2090
4 2084 2119 2122 2087
4 2133 2168 2173 2138
4 2128 2163 2168 2133
4 2125 2160 2163 2128
4 2122 2158 2160 2125
4 2119 2154 2158 2122
4 2168 2204 2208 2173
4 2163 2198 2204 2168
4 2160 2196 2198 2163
4 2158 2193 2196 2160
4 2154 2191 2193 2158
4 2204 2239 2243 2208
4 2198 2233 2239 2204
4 2196 2231 2233 2198
4 2193 2228 2231 2196
4 2191 2226 2228 2193
4 2239 2274 2278 2243
4 2233 2268 2274 2239
4 2231 2266 2268 2233
4 2228 2264 2266 2231
4 2226 2262 2264 2228
4 2274 2310 2313 2278
4 2268 2303 2310 2274
4 2266 2301 2303 2268
4 2264 2299 2301 2266
4 2262 2297 2299 2264
4 2310 2345 2349 2313
4 2303 2340 2345 2310
4 2301 2337 2340 2303
4 2299 2335 2337 2301
4 2297 2332 2335 2299
4 2345 2380 2384 2349
4 2340 2375 2380 2345
4 2337 2372 2375 2340
4 2335 2370 2372 2337
4 2332 2367 2370 2335
4 2380 2415 2419 2384
4 2375 2412 2415 2380
4 2372 2407 2412 2375
4 2370 2405 2407 2372
4 2367 2403 2405 2370
4 2415 2450 2454 2419
4 2412 2447 2450 2415
4 2407 2442 2447 2412
4 2405 2440 2442 2407
4 2403 2438 2440 2405
4 2450 2487 2489 2454
4 2447 2483 2487 2450
4 2442 2477 2483 2447
4 2440 2475 2477 2442
4 2438 2474 2475 2440
4 2487 2522 2524 2489
4 2483 2518 2522 2487
4 2477 2512 2518 2483
4 2475 2510 2512 2477
4 2474 2509 2510 2475
4 2522 2557 2560 2524
4 2518 2553 2557 2522
4 2512 2547 2553 2518
4 2510 2546 2547 2512
4 2509 2544 2546 2510
4 2557 2592 2596 2560
4 2553 2588 2592 2557
4 2547 2583 2588 2553
4 2546 2581 2583 2547
4 2544 2579 2581 2546
4 2592 2627 2631 2596
4 2588 2624 2627 2592
4 2583 2619 2624 2588
4 2581 2616 2619 2583
4 2579 2614 2616 2581
4 2627 2663 2666 2631
4 2624 2659 2663 2627
4 2619 2656 2659 2624
4 2616 2651 2656 2619
4 2614 2649 2651 2616
4 2663 2698 2701 2666
4 2659 2694 2698 2663
4 2656 2691 2694 2659
4 2651 2686 2691 2656
4 2649 2684 2686 2651
4 2698 2733 2736 2701
4 2694 2729 2733 2698
4 2691 2726 2729 2694
4 2686 2721 2726 2691
4 2684 2719 2721 2686
4 2733 2768 2771 2736
4 2729 2766 2768 2733
4 2726 2762 2766 2729
4 2721 2756 2762 2726
4 2719 2755 2756 2721
4 2768 2803 2806 2771
4 2766 2801 2803 2768
4 2762 2797 2801 2766
4 2756 2791 2797 2762
4 2755 2790 2791 2756
4 2803 2838 2842 2806
4 2801 2836 2838 2803
4 2797 2832 2836 2801
4 2791 2828 2832 2797
4 2790 2825 2828 2791
4 2838 2874 2877 2842
4 2836 2871 2874 2838
4 2832 2868 2871 2836
4 2828 2863 2868 2832
4 2825 2860 2863 2828
4 2874 2910 2912 2877
4 2871 2906 2910 2874
4 2868 2903 2906 2871
4 2863 2900 2903 2868
4 2860 2895 2900 2863
4 2910 2945 2947 2912
4 2906 2941 2945 2910
4 2903 2938 2941 2906
4 2900 2935 2938 2903
4 2895 2930 2935 2900
4 2945 2980 2982 2947
4 2941 2977 2980 2945
4 2938 2973 2977 2941
4 2935 2970 2973 2938
4 2930 2965 2970 2935
4 2980 3015 3018 2982
4 2977 3012 3015 2980
4 2973 3008 3012 2977
4 2970 3006 3008 2973
4 2965 3001 3006 2970
4 3015 3050 3053 3018
4 3012 3047 3050 3015
4 3008 3045 3047 3012
4 3006 3041 3045 3008
4 3001 3037 3041 3006
4 3050 3085 3088 3053
4 3047 3082 3085 3050
4 3045 3080 3082 3047
4 3041 3076 3080 3045
4 3037 3072 3076 3041
4 3085 3120 3123 3088
4 3082 3117 3120 3085
4 3080 3115 3117 3082
4 3076 3112 3115 3080
4 3072 3109 3112 3076
4 3120 3156 3159 3123
4 3117 3152 3156 3120
4 3115 3150 3152 3117
4 3112 3147 3150 3115
4 3109 3144 3147 3112
4 3156 3191 3194 3159
4 3152 3188 3191 3156
4 3150 3185 3188 3152
4 3147 3182 3185 3150
4 3144 3180 3182 3147
4 3191 3226 3229 3194
4 3188 3224 3226 3191
4 3185 3221 3224 3188
4 3182 3217 3221 3185
4 3180 3215 3217 3182
4 3226 3261 3264 3229
4 3224 3259 3261 3226
4 3221 3256 3259 3224
4 3217 3254 3256 3221
4 3215 3250 3254 3217
4 3261 3296 3299 3264
4 3259 3294 3296 3261
4 3256 3291 3294 3259
4 3254 3289 3291 3256
4 3250 3285 3289 3254
4 3296 3332 3334 3299
4 3294 3329 3332 3296
4 3291 3326 3329 3294
4 3289 3324 3326 3291
4 3285 3321 3324 3289
4 3332 3367 3369 3334
4 3329 3364 3367 3332
4 3326 3361 3364 3329
4 3324 3359 3361 3326
4 3321 3356 3359 3324
4 3367 3402 3404 3369
4 3364 3399 3402 3367
4 3361 3396 3399 3364
4 3359 3394 3396 3361
4 3356 3391 3394 3359
4 3402 3437 3439 3404
4 3399 3434 3437 3402
4 3396 3432 3434 3399
4 3394 3429 3432 3396
4 3391 3426 3429 3394
4 3437 3473 3475 3439
4 3434 3470 3473 3437
4 3432 3468 3470 3434
4 3429 3465 3468 3432
4 3426 3463 3465 3429
4 3473 3508 3510 3475
4 3470 3505 3508 3473
4 3468 3503 3505 3470
4 3465 3500 3503 3468
4 3463 3498 3500 3465
4 15 18 26 22
4 9 12 18 15
4 4 7 12 9
4 1 3 7 4
4 0 2 3 1
4 18 20 28 26
4 12 14 20 18
4 7 8 14 12
4 3 6 8 7
4 2 5 6 3
4 20 24 31 28
4 14 19 24 20
4 8 13 19 14
4 6 11 13 8
4 5 10 11 6
4 24 30 39 31
4 19 25 30 24
4 13 21 25 19
4 11 17 21 13
4 10 16 17 11
4 30 40 45 39
4 25 32 40 30
4 21 29 32 25
4 17 27 29 21
4 16 23 27 17
4 40 49 55 45
4 32 42 49 40
4 29 38 42 32
4 27 36 38 29
4 23 34 36 27
4 49 61 68 55
4 42 53 61 49
4 38 51 53 42
4 36 47 51 38
4 34 44 47 36
4 61 69 79 68
4 53 65 69 61
4 51 62 65 53
4 47 60 62 51
4 44 57 60 47
4 69 84 99 79
4 65 82 84 69
4 62 78 82 65
4 60 74 78 62
4 57 72 74 60
4 84 113 126 99
4 82 104 113 84
4 78 94 104 82
4 74 90 94 78
4 72 87 90 74
4 113 143 156 126
4 104 134 143 113
4 94 123 134 104
4 90 122 123 94
4 87 121 122 90
4 143 172 185 156
4 134 168 172 143
4 123 157 168 134
4 122 154 157 123
4 121 150 154 122
4 172 205 215 185
4 168 195 205 172
4 157 192 195 168
4 154 188 192 157
4 150 186 188 154
4 205 255 274 215
4 195 243 255 205
4 192 231 243 195
4 188 222 231 192
4 186 217 222 188
4 255 314 337 274
4 243 303 314 255
4 231 290 303 243
4 222 287 290 231
4 217 280 287 222
4 314 379 394 337
4 303 365 379 314
4 290 349 365 303
4 287 348 349 290
4 280 343 348 287
4 379 443 455 394
4 365 429 443 379
4 349 417 429 365
4 348 411 417 349
4 343 409 411 348
4 443 491 504 455
4 429 486 491 443
4 417 478 486 429
4 411 473 478 417
4 409 467 473 411
4 491 541 548 504
4 486 534 541 491
4 478 523 534 486
4 473 522 523 478
4 467 520 522 473
4 541 585 594 548
4 534 579 585 541
4 523 572 579 534
4 522 570 572 523
4 520 568 570 522
4 585 631 640 594
4 579 623 631 585
4 572 617 623 579
4 570 616 617 572
4 568 613 616 570
4 631 670 680 640
4 623 666 670 631
4 617 659 666 623
4 616 654 659 617
4 613 653 654 616
4 670 712 721 680
4 666 708 712 670
4 659 704 708 666
4 654 700 704 659
4 653 698 700 654
4 712 753 763 721
4 708 750 753 712
4 704 742 750 708
4 700 739 742 704
4 698 738 739 700
4 753 795 803 763
4 750 789 795 753
4 742 783 789 750
4 739 781 783 742
4 738 779 781 739
4 795 835 841 803
4 789 831 835 795
4 783 825 831 789
4 781 821 825 783
4 779 818 821 781
4 835 875 880 841
4 831 869 875 835
4 825 865 869 831
4 821 864 865 825
4 818 860 864 821
4 875 913 918 880
4 869 909 913 875
4 865 904 909 869
4 864 902 904 865
4 860 900 902 864
4 913 950 955 918
4 909 947 950 913
4 904 941 947 909
4 902 940 941 904
4 900 939 940 902
4 950 987 994 955
4 947 985 987 950
4 941 981 985 947
4 940 979 981 941
4 939 978 979 940
4 987 1026 1032 994
4 985 1021 1026 987
4 981 1018 1021 985
4 979 1016 1018 981
4 978 1014 1016 979
4 1026 1063 1070 1032
4 1021 1059 1063 1026
4 1018 1057 1059 1021
4 1016 1055 1057 1018
4 1014 1051 1055 1016
4 1063 1102 1107 1070
4 1059 1097 1102 1063
4 1057 1093 1097 1059
4 1055 1092 1093 1057
4 1051 1091 1092 1055
4 1102 1139 1143 1107
4 1097 1135 1139 1102
4 1093 1132 1135 1097
4 1092 1128 1132 1093
4 1091 1126 1128 1092
4 1139 1177 1180 1143
4 1135 1172 1177 1139
4 1132 1170 1172 1135
4 1128 1168 1170 1132
4 1126 1167 1168 1128
4 1177 1214 1217 1180
4 1172 1210 1214 1177
4 1170 1206 1210 1172
4 1168 1205 1206 1170
4 1167 1204 1205 1168
4 1214 1250 1253 1217
4 1210 1248 1250 1214
4 1206 1243 1248 1210
4 1205 1242 1243 1206
4 1204 1241 1242 1205
4 1250 1287 1289 1253
4 1248 1284 1287 1250
4 1243 1281 1284 1248
4 1242 1278 1281 1243
4 1241 1276 1278 1242
4 1287 1322 1327 1289
4 1284 1320 1322 1287
4 1281 1318 1320 1284
4 1278 1316 1318 1281
4 1276 1315 1316 1278
4 1322 1359 1362 1327
4 1320 1356 1359 1322
4 1318 1354 1356 1320
4 1316 1352 1354 1318
4 1315 1350 1352 1316
4 1359 1394 1400 1362
4 1356 1393 1394 1359
4 1354 1390 1393 1356
4 1352 1388 1390 1354
4 1350 1387 1388 1352
4 1394 1429 1435 1400
4 1393 1428 1429 1394
4 1390 1427 1428 1393
4 1388 1425 1427 1390
4 1387 1422 1425 1388
4 1429 1468 1472 1435
4 1428 1463 1468 1429
4 1427 1462 1463 1428
4 1425 1461 1462 1427
4 1422 1460 1461 1425
4 1468 1504 1510 1472
4 1463 1499 1504 1468
4 1462 1497 1499 1463
4 1461 1496 1497 1462
4 1460 1495 1496 1461
4 1504 1540 1547 1510
4 1499 1536 1540 1504
4 1497 1533 1536 1499
4 1496 1532 1533 1497
4 1495 1531 1532 1496
4 1540 1577 1584 1547
4 1536 1572 1577 1540
4 1533 1570 1572 1536
4 1532 1568 1570 1533
4 1531 1566 1568 1532
4 1577 1616 1620 1584
4 1572 1609 1616 1577
4 1570 1606 1609 1572
4 1568 1604 1606 1570
4 1566 1603 1604 1568
4 1616 1651 1656 1620
4 1609 1647 1651 1616
4 1606 1641 1647 1609
4 1604 1640 1641 1606
4 1603 1639 1640 1604
4 1651 1688 1691 1656
4 1647 1684 1688 1651
4 1641 1679 1684 1647
4 1640 1675 1679 1641
4 1639 1674 1675 1640
4 1688 1723 1726 1691
4 1684 1720 1723 1688
4 1679 1715 1720 1684
4 1675 1711 1715 1679
4 1674 1710 1711 1675
4 1723 1760 1764 1726
4 1720 1757 1760 1723
4 1715 1754 1757 1720
4 1711 1752 1754 1715
4 1710 1749 1752 1711
4 1760 1795 1799 1764
4 1757 1793 1795 1760
4 1754 1790 1793 1757
4 1752 1789 1790 1754
4 1749 1786 1789 1752
4 1795 1832 1835 1799
4 1793 1828 1832 1795
4 1790 1827 1828 1793
4 1789 1824 1827 1790
4 1786 1823 1824 1789
4 1832 1867 1870 1835
4 1828 1864 1867 1832
4 1827 1862 1864 1828
4 1824 1860 1862 1827
4 1823 1858 1860 1824
4 1867 1904 1905 1870
4 1864 1901 1904 1867
4 1862 1897 1901 1864
4 1860 1896 1897 1862
4 1858 1895 1896 1860
4 1904 1939 1943 1905
4 1901 1936 1939 1904
4 1897 1934 1936 1901
4 1896 1933 1934 1897
4 1895 1930 1933 1896
4 1939 1974 1978 1943
4 1936 1972 1974 1939
4 1934 1970 1972 1936
4 1933 1968 1970 1934
4 1930 1967 1968 1933
4 1974 2009 2013 1978
4 1972 2007 2009 1974
4 1970 2005 2007 1972
4 1968 2003 2005 1970
4 1967 2002 2003 1968
4 2009 2046 2048 2013
4 2007 2043 2046 2009
4 2005 2041 2043 2007
4 2003 2040 2041 2005
4 2002 2038 2040 2003
4 2046 2081 2084 2048
4 2043 2080 2081 2046
4 2041 2076 2080 2043
4 2040 2075 2076 2041
4 2038 2074 2075 2040
4 2081 2117 2119 2084
4 2080 2115 2117 2081
4 2076 2113 2115 2080
4 2075 2110 2113 2076
4 2074 2109 2110 2075
4 2117 2153 2154 2119
4 2115 2150 2153 2117
4 2113 2149 2150 2115
4 2110 2147 2149 2113
4 2109 2145 2147 2110
4 2153 2188 2191 2154
4 2150 2185 2188 2153
4 2149 2184 2185 2150
4 2147 2183 2184 2149
4 2145 2181 2183 2147
4 2188 2223 2226 2191
4 2185 2222 2223 2188
4 2184 2219 2222 2185
4 2183 2218 2219 2184
4 2181 2217 2218 2183
4 2223 2259 2262 2226
4 2222 2257 2259 2223
4 2219 2255 2257 2222
4 2218 2253 2255 2219
4 2217 2252 2253 2218
4 2259 2294 2297 2262
4 2257 2293 2294 2259
4 2255 2290 2293 2257
4 2253 2289 2290 2255
4 2252 2288 2289 2253
4 2294 2330 2332 2297
4 2293 2328 2330 2294
4 2290 2326 2328 2293
4 2289 2324 2326 2290
4 2288 2323 2324 2289
4 2330 2366 2367 2332
4 2328 2364 2366 2330
4 2326 2362 2364 2328
4 2324 2361 2362 2326
4 2323 2358 2361 2324
4 2366 2401 2403 2367
4 2364 2399 2401 2366
4 2362 2397 2399 2364
4 2361 2396 2397 2362
4 2358 2395 2396 2361
4 2401 2436 2438 2403
4 2399 2434 2436 2401
4 2397 2433 2434 2399
4 2396 2432 2433 2397
4 2395 2430 2432 2396
4 2436 2472 2474 2438
4 2434 2470 2472 2436
4 2433 2468 2470 2434
4 2432 2467 2468 2433
4 2430 2466 2467 2432
4 2472 2507 2509 2474
4 2470 2505 2507 2472
4 2468 2503 2505 2470
4 2467 2502 2503 2468
4 2466 2501 2502 2467
4 2507 2542 2544 2509
4 2505 2541 2542 2507
4 2503 2539 2541 2505
4 2502 2537 2539 2503
4 2501 2536 2537 2502
4 2542 2577 2579 2544
4 2541 2576 2577 2542
4 2539 2575 2576 2541
4 2537 2572 2575 2539
4 2536 2571 2572 2537
4 2577 2613 2614 2579
4 2576 2611 2613 2577
4 2575 2610 2611 2576
4 2572 2609 2610 2575
4 2571 2608 2609 2572
4 2613 2648 2649 2614
4 2611 2646 2648 2613
4 2610 2645 2646 2611
4 2609 2644 2645 2610
4 2608 2643 2644 2609
4 2648 2683 2684 2649
4 2646 2681 2683 2648
4 2645 2680 2681 2646
4 2644 2679 2680 2645
4 2643 2678 2679 2644
4 2683 2718 2719 2684
4 2681 2717 2718 2683
4 2680 2715 2717 2681
4 2679 2714 2715 2680
4 2678 2713 2714 2679
4 2718 2753 2755 2719
4 2717 2752 2753 2718
4 2715 2750 2752 2717
4 2714 2749 2750 2715
4 2713 2748 2749 2714
4 2753 2788 2790 2755
4 2752 2787 2788 2753
4 2750 2785 2787 2752
4 2749 2784 2785 2750
4 2748 2783 2784 2749
4 2788 2823 2825 2790
4 2787 2822 2823 2788
4 2785 2821 2822 2787
4 2784 2819 2821 2785
4 2783 2818 2819 2784
4 2823 2858 2860 2825
4 2822 2857 2858 2823
4 2821 2856 2857 2822
4 2819 2855 2856 2821
4 2818 2853 2855 2819
4 2858 2894 2895 2860
4 2857 2892 2894 2858
4 2856 2891 2892 2857
4 2855 2890 2891 2856
4 2853 2889 2890 2855
4 2894 2929 2930 2895
4 2892 2927 2929 2894
4 2891 2926 2927 2892
4 2890 2925 2926 2891
4 2889 2924 2925 2890
4 2929 2964 2965 2930
4 2927 2962 2964 2929
4 2926 2961 2962 2927
4 2925 2960 2961 2926
4 2924 2959 2960 2925
4 2964 2999 3001 2965
4 2962 2997 2999 2964
4 2961 2996 2997 2962
4 2960 2995 2996 2961
4 2959 2994 2995 2960
4 2999 3034 3037 3001
4 2997 3033 3034 2999
4 2996 3031 3033 2997
4 2995 3030 3031 2996
4 2994 3029 3030 2995
4 3034 3069 3072 3037
4 3033 3068 3069 3034
4 3031 3066 3068 3033
4 3030 3065 3066 3031
4 3029 3064 3065 3030
4 3069 3104 3109 3072
4 3068 3103 3104 3069
4 3066 3101 3103 3068
4 3065 3100 3101 3066
4 3064 3099 3100 3065
4 3104 3139 3144 3109
4 3103 3138 3139 3104
4 3101 3137 3138 3103
4 3100 3135 3137 3101
4 3099 3134 3135 3100
4 3139 3175 3180 3144
4 3138 3173 3175 3139
4 3137 3172 3173 3138
4 3135 3171 3172 3137
4 3134 3170 3171 3135
4 3175 3211 3215 3180
4 3173 3208 3211 3175
4 3172 3207 3208 3173
4 3171 3206 3207 3172
4 3170 3205 3206 3171
4 3211 3248 3250 3215
4 3208 3243 3248 3211
4 3207 3242 3243 3208
4 3206 3241 3242 3207
4 3205 3240 3241 3206
4 3248 3283 3285 3250
4 3243 3279 3283 3248
4 3242 3277 3279 3243
4 3241 3276 3277 3242
4 3240 3275 3276 3241
4 3283 3319 3321 3285
4 3279 3315 3319 3283
4 3277 3312 3315 3279
4 3276 3311 3312 3277
4 3275 3310 3311 3276
4 3319 3354 3356 3321
4 3315 3352 3354 3319
4 3312 3347 3352 3315
4 3311 3346 3347 3312
4 3310 3345 3346 3311
4 3354 3389 3391 3356
4 3352 3387 3389 3354
4 3347 3383 3387 3352
4 3346 3381 3383 3347
4 3345 3380 3381 3346
4 3389 3424 3426 3391
4 3387 3422 3424 3389
4 3383 3419 3422 3387
4 3381 3416 3419 3383
4 3380 3415 3416 3381
4 3424 3460 3463 3426
4 3422 3458 3460 3424
4 3419 3456 3458 3422
4 3416 3453 3456 3419
4 3415 3451 3453 3416
4 3460 3495 3498 3463
4 3458 3493 3495 3460
4 3456 3491 3493 3458
4 3453 3488 3491 3456
4 3451 3487 3488 3453
4 3518 3517 3519 3521
4 3531 3541 3545 3537
4 3564 3566 3565 3561
4 3560 3555 3548 3553
4 3520 3518 3521 3527
4 3522 3531 3537 3529
4 3519 3522 3529 3521
4 3562 3564 3561 3558
4 3563 3560 3553 3557
4 3565 3563 3557 3561
4 3526 3520 3527 3534
4 3545 3551 3543 3537
4 3559 3562 3558 3554
4 3548 3539 3546 3553
4 3533 3526 3534 3538
4 3539 3533 3538 3546
4 3551 3556 3549 3543
4 3556 3559 3554 3549
4 3521 3529 3535 3527
4 3529 3537 3543 3535
4 3558 3561 3557 3552
4 3557 3553 3546 3552
4 3554 3558 3552 3547
4 3552 3546 3538 3547
4 3549 3554 3547 3540
4 3547 3538 3534 3540
4 3534 3527 3535 3540
4 3535 3543 3549 3540

CELL_TYPES 3428
9
9
9
9
9
9
9
9
9
9
9
9
9
9
9
9
9
9
9
9
9
9
9
9
9
9
9
9
9
9
9
9
9
9
9
9
9
9
9
9
9
9
9
9
9
9
9
9
9
9
9
9
9
9
9
9
9
9
9
9
9
9
9
9
9
9
9
9
9
9
9
9
9
9
9
9
9
9
9
9
9
9
9
9
9
9
9
9
9
9
9
9
9
9
9
9
9
9
9
9
9
9
9
9
9
9
9
9
9
9
9
9
9
9
9
9
9
9
9
9
9
9
9
9
9
9
9
9
9
9
9
9
9
9
9
9
9
9
9
9
9
9
9
9
9
9
9
9
9
9
9
9
9
9
9
9
9
9
9
9
9
9
9
9
9
9
9
9
9
9
9
9
9
9
9
9
9
9
9
9
9
9
9
9
9
9
9
9
9
9
9
9
9
9
9
9
9
9
9
9
9
9
9
9
9
9
9
9
9
9
9
9
9
9
9
9
9
9
9
9
9
9
9
9
9
9
9
9
9
9
9
9
9
9
9
9
9
9
9
9
9
9
9
9
9
9
9
9
9
9
9
9
9
9
9
9
9
9
9
9
9
9
9
9
9
9
9
9
9
9
9
9
9
9
9
9
9
9
9
9
9
9
9
9
9
9
9
9
9
9
9
9
9
9
9
9
9
9
9
9
9
9
9
9
9
9
9
9
9
9
9
9
9
9
9
9
9
9
9
9
9
9
9
9
9
9
9
9
9
9
9
9
9
9
9
9
9
9
9
9
9
9
9
9
9
9
9
9
9
9
9
9
9
9
9
9
9
9
9
9
9
9
9
9
9
9
9
9
9
9
9
9
9
9
9
9
9
9
9
9
9
9
9
9
9
9
9
9
9
9
9
9
9
9
9
9
9
9
9
9
9
9
9
9
9
9
9
9
9
9
9
9
9
9
9
9
9
9
9
9
9
9
9
9
9
9
9
9
9
9
9
9
9
9
9
9
9
9
9
9
9
9
9
9
9
9
9
9
9
9
9
9
9
9
9
9
9
9
9
9
9
9
9
9
9
9
9
9
9
9
9
9
9
9
9
9
9
9
9
9
9
9
9
9
9
9
9
9
9
9
9
9
9
9
9
9
9
9
9
9
9
9
9
9
9
9
9
9
9
9
9
9
9
9
9
9
9
9
9
9
9
9
9
9
9
9
9
9
9
9
9
9
9
9
9
9
9
9
9
9
9
9
9
9
9
9
9
9
9
9
9
9
9
9
9
9
9
9
9
9
9
9
9
9
9
9
9
9
9
9
9
9
9
9
9
9
9
9
9
9
9
9
9
9
9
9
9
9
9
9
9
9
9
9
9
9
9
9
9
9
9
9
9
9
9
9
9
9
9
9
9
9
9
9
9
9
9
9
9
9
9
9
9
9
9
9
9
9
9
9
9
9
9
9
9
9
9
9
9
9
9
9
9
9
9
9
9
9
9
9
9
9
9
9
9
9
9
9
9
9
9
9
9
9
9
9
9
9
9
9
9
9
9
9
9
9
9
9
9
9
9
9
9
9
9
9
9
9
9
9
9
9
9
9
9
9
9
9
9
9
9
9
9
9
9
9
9
9
9
9
9
9
9
9
9
9
9
9
9
9
9
9
9
9
9
9
9
9
9
9
9
9
9
9
9
9
9
9
9
9
9
9
9
9
9
9
9
9
9
9
9
9
9
9
9
9
9
9
9
9
9
9
9
9
9
9
9
9
9
9
9
9
9
9
9
9
9
9
9
9
9
9
9
9
9
9
9
9
9
9
9
9
9
9
9
9
9
9
9
9
9
9
9
9
9
9
9
9
9
9
9
9
9
9
9
9
9
9
9
9
9
9
9
9
9
9
9
9
9
9
9
9
9
9
9
9
9
9
9
9
9
9
9
9
9
9
9
9
9
9
9
9
9
9
9
9
9
9
9
9
9
9
9
9
9
9
9
9
9
9
9
9
9
9
9
9
9
9
9
9
9
9
9
9
9
9
9
9
9
9
9
9
9
9
9
9
9
9
9
9
9
9
9
9
9
9
9
9
9
9
9
9
9
9
9
9
9
9
9
9
9
9
9
9
9
9
9
9
9
9
9
9
9
9
9
9
9
9
9
9
9
9
9
9
9
9
9
9
9
9
9
9
9
9
9
9
9
9
9
9
9
9
9
9
9
9
9
9
9
9
9
9
9
9
9
9
9
9
9
9
9
9
9
9
9
9
9
9
9
9
9
9
9
9
9
9
9
9
9
9
9
9
9
9
9
9
9
9
9
9
9
9
9
9
9
9
9
9
9
9
9
9
9
9
9
9
9
9
9
9
9
9
9
9
9
9
9
9
9
9
9
9
9
9
9
9
9
9
9
9
9
9
9
9
9
9
9
9
9
9
9
9
9
9
9
9
9
9
9
9
9
9
9
9
9
9
9
9
9
9
9
9
9
9
9
9
9
9
9
9
9
9
9
9
9
9
9
9
9
9
9
9
9
9
9
9
9
9
9
9
9
9
9
9
9
9
9
9
9
9
9
9
9
9
9
9
9
9
9
9
9
9
9
9
9
9
9
9
9
9
9
9
9
9
9
9
9
9
9
9
9
9
9
9
9
9
9
9
9
9
9
9
9
9
9
9
9
9
9
9
9
9
9
9
9
9
9
9
9
9
9
9
9
9
9
9
9
9
9
9
9
9
9
9
9
9
9
9
9
9
9
9
9
9
9
9
9
9
9
9
9
9
9
9
9
9
9
9
9
9
9
9
9
9
9
9
9
9
9
9
9
9
9
9
9
9
9
9
9
9
9
9
9
9
9
9
9
9
9
9
9
9
9
9
9
9
9
9
9
9
9
9
9
9
9
9
9
9
9
9
9
9
9
9
9
9
9
9
9
9
9
9
9
9
9
9
9
9
9
9
9
9
9
9
9
9
9
9
9
9
9
9
9
9
9
9
9
9
9
9
9
9
9
9
9
9
9
9
9
9
9
9
9
9
9
9
9
9
9
9
9
9
9
9
9
9
9
9
9
9
9
9
9
9
9
9
9
9
9
9
9
9
9
9
9
9
9
9
9
9
9
9
9
9
9
9
9
9
9
9
9
9
9
9
9
9
9
9
9
9
9
9
9
9
9
9
9
9
9
9
9
9
9
9
9
9
9
9
9
9
9
9
9
9
9
9
9
9
9
9
9
9
9
9
9
9
9
9
9
9
9
9
9
9
9
9
9
9
9
9
9
9
9
9
9
9
9
9
9
9
9
9
9
9
9
9
9
9
9
9
9
9
9
9
9
9
9
9
9
9
9
9
9
9
9
9
9
9
9
9
9
9
9
9
9
9
9
9
9
9
9
9
9
9
9
9
9
9
9
9
9
9
9
9
9
9
9
9
9
9
9
9
9
9
9
9
9
9
9
9
9
9
9
9
9
9
9
9
9
9
9
9
9
9
9
9
9
9
9
9
9
9
9
9
9
9
9
9
9
9
9
9
9
9
9
9
9
9
9
9
9
9
9
9
9
9
9
9
9
9
9
9
9
9
9
9
9
9
9
9
9
9
9
9
9
9
9
9
9
9
9
9
9
9
9
9
9
9
9
9
9
9
9
9
9
9
9
9
9
9
9
9
9
9
9
9
9
9
9
9
9
9
9
9
9
9
9
9
9
9
9
9
9
9
9
9
9
9
9
9
9
9
9
9
9
9
9
9
9
9
9
9
9
9
9
9
9
9
9
9
9
9
9
9
9
9
9
9
9
9
9
9
9
9
9
9
9
9
9
9
9
9
9
9
9
9
9
9
9
9
9
9
9
9
9
9
9
9
9
9
9
9
9
9
9
9
9
9
9
9
9
9
9
9
9
9
9
9
9
9
9
9
9
9
9
9
9
9
9
9
9
9
9
9
9
9
9
9
9
9
9
9
9
9
9
9
9
9
9
9
9
9
9
9
9
9
9
9
9
9
9
9
9
9
9
9
9
9
9
9
9
9
9
9
9
9
9
9
9
9
9
9
9
9
9
9
9
9
9
9
9
9
9
9
9
9
9
9
9
9
9
9
9
9
9
9
9
9
9
9
9
9
9
9
9
9
9
9
9
9
9
9
9
9
9
9
9
9
9
9
9
9
9
9
9
9
9
9
9
9
9
9
9
9
9
9
9
9
9
9
9
9
9
9
9
9
9
9
9
9
9
9
9
9
9
9
9
9
9
9
9
9
9
9
9
9
9
9
9
9
9
9
9
9
9
9
9
9
9
9
9
9
9
9
9
9
9
9
9
9
9
9
9
9
9
9
9
9
9
9
9
9
9
9
9
9
9
9
9
9
9
9
9
9
9
9
9
9
9
9
9
9
9
9
9
9
9
9
9
9
9
9
9
9
9
9
9
9
9
9
9
9
9
9
9
9
9
9
9
9
9
9
9
9
9
9
9
9
9
9
9
9
9
9
9
9
9
9
9
9
9
9
9
9
9
9
9
9
9
9
9
9
9
9
9
9
9
9
9
9
9
9
9
9
9
9
9
9
9
9
9
9
9
9
9
9
9
9
9
9
9
9
9
9
9
9
9
9
9
9
9
9
9
9
9
9
9
9
9
9
9
9
9
9
9
9
9
9
9
9
9
9
9
9
9
9
9
9
9
9
9
9
9
9
9
9
9
9
9
9
9
9
9
9
9
9
9
9
9
9
9
9
9
9
9
9
9
9
9
9
9
9
9
9
9
9
9
9
9
9
9
9
9
9
9
9
9
9
9
9
9
9
9
9
9
9
9
9
9
9
9
9
9
9
9
9
9
9
9
9
9
9
9
9
9
9
9
9
9
9
9
9
9
9
9
9
9
9
9
9
9
9
9
9
9
9
9
9
9
9
9
9
9
9
9
9
9
9
9
9
9
9
9
9
9
9
9
9
9
9
9
9
9
9
9
9
9
9
9
9
9
9
9
9
9
9
9
9
9
9
9
9
9
9
9
9
9
9
9
9
9
9
9
9
9
9
9
9
9
9
9
9
9
9
9
9
9
9
9
9
9
9
9
9
9
9
9
9
9
9
9
9
9
9
9
9
9
9
9
9
9
9
9
9
9
9
9
9
9
9
9
9
9
9
9
9
9
9
9
9
9
9
9
9
9
9
9
9
9
9
9
9
9
9
9
9
9
9
9
9
9
9
9
9
9
9
9
9
9
9
9
9
9
9
9
9
9
9
9
9
9
9
9
9
9
9
9
9
9
9
9
9
9
9
9
9
9
9
9
9
9
9
9
9
9
9
9
9
9
9
9
9
9
9
9
9
9
9
9
9
9
9
9
9
9
9
9
9
9
9
9
9
9
9
9
9
9
9
9
9
9
9
9
9
9
9
9
9
9
9
9
9
9
9
9
9
9
9
9
9
9
9
9
9
9
9
9
9
9
9
9
9
9
9
9
9
9
9
9
9
9
9
9
9
9
9
9
9
9
9
9
9
9
9
9
9
9
9
9
9
9
9
9
9
9
9
9
9
9
9
9
9
9
9
9
9
9
9
9
9
9
9
9
9
9
9
9
9
9
9
9
9
9
9
9
9
9
9
9
9
9
9
9
9
9
9
9
9
9
9
9
9
9
9
9
9
9
9
9
9
9
9
9
9
9
9
9
9
9
9
9
9
9
9
9
9
9
9
9
9
9
9
9
9
9
9
9
9
9
9
9
9
9
9
9
9
9
9
9
9
9
9
9
9
9
9
9
9
9
9
9
9
9
9
9
9
9
9
9
9
9
9
9
9
9
9
9
9
9
9
9
9
9
9
9
9
9
9
9
9
9
9
9
9
9
9
9
9
9
9
9
9
9
9
9
9
9
9
9
9
9
9
9
9
9
9
9
9
9
9
9
9
9
9
9
9
9
9
9
9
9
9
9
9
9
9
9
9
9
9
9
9
9
9
9
9
9
9
9
9
9
9
9
9
9
9
9
9
9
9
9
9
9
9
9
9
9
9
9
9
9
9
9
9
9
9
9
9
9
9
9
9
9
9
9
9
9
9
9
9
9
9
9
9
9
9
9
9
9
9
9
9
9
9
9
9
9
9
9
9
9
9
9
9
9
9
9
9
9
9
9
9
9
9
9
9
9
9
9
9
9
9
9
9
9
9
9
9
9
9
9
9
9
9
9
9
9
9
9
9
9
9
9
9
9
9
9
9
9
9
9
9
9
9
9
9
9
9
9
9
9
9
9
9
9
9
9
9
9
9
9
9
9
9
9
9
9
9
9
9
9
9
9
9
9
9
9
9
9
9
9
9
9
9
9
9
9
9
9
9
9
9
9
9
9
9
9
9
9
9
9
9
9
9
9
9
9
9
9
9
9
9
9
9
9
9
9
9
9
9
9
9
9
9
9
9
9
9
9
9
9
9
9
9
9
9
9
9
9
9
9
9
9
9
9
9
9
9
9
9
9
9
9
9
9
9
9
9
9
9
9
9
9
9
9
9
9
9
9
9
9
9
9
9
9
9
9
9
9
9
9
9
9
9
9
9
9
9
9
9
9
9
9
9
9
9
9
9
9
9
9
9
9
9
9
9
9
9
9
9
9
9
9
9
9
9
9
9
9
9
9
9
9
9
9
9
9
9
9
9
9
9
9
9
9
9
9
9
9
9
9
9
9
9
9
9
9
9
9
9
9
9
9
9
9
9
9
9
9
9
9
9
9
9
9
9
9
9
9
9
9
9
9
9
9
9
9
9
9
9
9
9
9
9
9
9
9
9
9
9
9
9
9
9
9
9
9
9
9
9
9
9
9
9
9
9
9
9
9
9
9
9
9
9
9
9
9
9
9
9
9
9
9
9
9
9
9
9
9
9
9
9
9
9
9
9
9
9
9
9
9
9
9
9
9
9
9
9
9
9
9
9
9
9
9
9
9
9
9
9
9
9
9
9
9
9
9
9
9
9
9
9
9
9
9
9
9
9
9
9
9
9
9
9
9
9
9
9
9
9
9
9
9
9
9
9
9
9
9
9
9
9
9
9
9
9
9
9
9
9
9
9
9
9
9
9
9
9
9
9
9
9
9
9
9
9
9
9
9
9
9
9
9
9
9
9
9
9
9
9
9
9
9
9
9
9
9
9
9
9
9
9
9
9
9
9
9
9
9
9
9
9
9
9
9
9
9
9
9
9
9
9
9
9
9
9
9
9
9
9
9
9
9
9
9
9
9
9
9
9
9
9
9
9
9
9
9
9
9
9
9
9
9
9
9
9
9
9
9
9
9
9
9
9
9
9
9
9
9
9
9
9
9
9
9
9
9
9
9
9
9
9
9
9
9
9
9
9
9
9
9
9
9
9
9
9
9
9
9
9
9
9
9
9
9
9
9
9
9
9
9
9
9
9
9
9
9
9
9
9
9
9
9
9
9
9
9
9
9
9
9
9
9
9
9
9
9
9
9
9
9
9
9
9
9
9
9
9
9
9
9
9
9
9
9
9
9
9
9
9
9
9
9
9
9
9
9
9
9
9
9
9
9
9
9
9
9
9
9
9
9
9
9
9
9
9
9
9
9
9
9
9
9
9
9
9
9
9
9
9
9
9
9
9
9
9
9
9
9
9
9
9
9
9
9
9
9
9
9
9
9
9
9
9
9
9
9
9
9
9
9
9
9
9
9
9
9
9
9
9
9
9
9
9
9
9
9
9
9
9
9
9
9
9
9
9
9
9
9
9
9
9
9
9
9
9
9
9
9
9
9
9
9
9
9
9
9
9
9
9
9
9
9
9
9
9
9
9
POINT_DATA 3567
FIELD FieldData 7
DISPLACEMENT 3 3567  float
0.0000000e+00 0.0000000e+00 0.0000000e+00 
0.0000000e+00 0.0000000e+00 0.0000000e+00 
9.4531704e-03 -5.3777119e-03 -3.3385602e-04 
6.9829478e-03 -3.0043001e-03 -7.7646401e-04 
0.0000000e+00 0.0000000e+00 0.0000000e+00 
1.6125293e-02 -7.5836462e-03 -2.1193176e-03 
1.4734440e-02 -5.8786313e-03 -3.1299127e-03 
6.9672875e-03 -2.1310373e-03 -1.0092960e-03 
1.4209589e-02 -3.8663950e-03 -3.8577002e-03 
0.0000000e+00 0.0000000e+00 0.0000000e+00 
2.2634689e-02 -8.9729923e-03 -5.6095974e-03 
2.1970590e-02 -6.9443676e-03 -7.1032120e-03 
7.2486967e-03 -1.4383712e-03 -1.2143602e-03 
2.1734283e-02 -4.9712296e-03 -8.3219693e-03 
1.4647060e-02 -2.3781483e-03 -4.5300766e-03 
0.0000000e+00 0.0000000e+00 0.0000000e+00 
2.9360049e-02 -9.5191645e-03 -1.0721332e-02 
2.9028539e-02 -7.5447347e-03 -1.2595600e-02 
7.8408344e-03 -9.0929720e-04 -1.5327347e-03 
2.2374733e-02 -2.8131249e-03 -9.4625609e-03 
1.6496021e-02 -3.4248867e-04 -5.3494491e-03 
2.9081647e-02 -5.4518559e-03 -1.4209427e-02 
0.0000000e+00 0.0000000e+00 0.0000000e+00 
3.6063944e-02 -9.8127279e-03 -1.7308386e-02 
2.4190481e-02 -8.8736652e-04 -1.0683675e-02 
2.9794207e-02 -3.3945814e-03 -1.5715921e-02 
1.3279291e-02 7.4518257e-04 -2.1211458e-03 
3.5963891e-02 -7.8274044e-03 -1.9462199e-02 
2.0506674e-02 1.2976078e-03 -6.4200471e-03 
3.6165499e-02 -5.8163920e-03 -2.1364820e-02 
3.1305916e-02 -1.4218873e-03 -1.7227902e-02 
2.7219013e-02 7.7063193e-04 -1.2049561e-02 
3.6860783e-02 -3.8018837e-03 -2.3130871e-02 
2.3962098e-02 -5.8097902e-03 7.1697815e-04 
4.2767609e-02 -9.9623769e-03 -2.5224707e-02 
2.1416821e-02 2.3615828e-03 -2.9619428e-03 
4.2745421e-02 -8.0197841e-03 -2.7571292e-02 
2.6403875e-02 1.8939501e-03 -7.6519627e-03 
4.3022275e-02 -6.0615072e-03 -2.9671340e-02 
3.3615440e-02 1.7701541e-04 -1.8787999e-02 
3.8127413e-02 -1.9266379e-03 -2.4838834e-02 
3.1047077e-02 1.7159026e-03 -1.3504630e-02 
4.3674010e-02 -4.1307093e-03 -3.1608619e-02 
2.8825199e-02 -2.8954089e-03 1.0840317e-03 
4.9380419e-02 -1.0070608e-02 -3.4346292e-02 
3.9824259e-02 -3.2628510e-04 -2.6515259e-02 
3.0588927e-02 3.1027217e-04 -3.6238356e-03 
4.9400574e-02 -8.1613337e-03 -3.6816677e-02 
3.6120638e-02 1.1749638e-03 -2.0358784e-02 
4.4713489e-02 -2.3051660e-03 -3.3436508e-02 
3.1042902e-02 1.9285459e-03 -8.8499871e-03 
4.9697242e-02 -6.2538650e-03 -3.9042330e-02 
3.3916021e-02 1.4288268e-03 -1.4915512e-02 
5.0292196e-02 -4.3771323e-03 -4.1082912e-02 
4.1714439e-02 9.4534185e-04 -2.8129350e-02 
4.6072159e-02 -6.5888120e-04 -3.5168831e-02 
2.9402626e-02 2.1199959e-03 1.0453887e-03 
5.5896393e-02 -1.0150261e-02 -4.4574819e-02 
3.1353245e-02 1.4990170e-04 -4.2075294e-03 
3.8238834e-02 1.7921597e-03 -2.1842550e-02 
5.5935405e-02 -8.2748930e-03 -4.7116731e-02 
5.1185770e-02 -2.5764160e-03 -4.2973302e-02 
5.6229820e-02 -6.4058366e-03 -4.9414169e-02 
3.1776323e-02 -3.2545816e-04 -9.8598933e-03 
4.7546664e-02 7.6003557e-04 -3.6776326e-02 
5.6777542e-02 -4.5639352e-03 -5.1508233e-02 
3.4863131e-02 1.4053317e-03 -1.6145870e-02 
4.3335525e-02 1.8822347e-03 -2.9601255e-02 
5.2311254e-02 -8.9866545e-04 -4.4717727e-02 
5.7565984e-02 -2.7781955e-03 -5.3420241e-02 
3.9286478e-02 2.0712167e-03 -2.3113498e-02 
2.5953258e-02 5.0881330e-03 7.1771731e-04 
6.2310352e-02 -1.0210575e-02 -5.5834911e-02 
2.3061088e-02 -2.0148902e-03 -4.6814644e-03 
6.2361646e-02 -8.3652826e-03 -5.8410171e-02 
2.8732752e-02 1.1888563e-04 -1.0646359e-02 
4.8940647e-02 2.0269111e-03 -3.8189937e-02 
5.3564544e-02 6.5133453e-04 -4.6287366e-02 
6.2648192e-02 -6.5263081e-03 -6.0740534e-02 
5.8553383e-02 -1.0685075e-03 -5.5147700e-02 
4.4457683e-02 2.8000821e-03 -3.0815207e-02 
3.3920259e-02 1.3647997e-03 -1.7088828e-02 
6.3157590e-02 -4.7098349e-03 -6.2853062e-02 
3.9335733e-02 2.8798935e-03 -2.4025124e-02 
6.3877665e-02 -2.9314386e-03 -6.4759313e-02 
5.4819219e-02 2.1050980e-03 -4.7622094e-02 
0.0000000e+00 0.0000000e+00 0.0000000e+00 
6.8627543e-02 -1.0253181e-02 -6.8069774e-02 
5.0102816e-02 3.2503991e-03 -3.9307643e-02 
5.9670340e-02 5.6122458e-04 -5.6662801e-02 
6.8689161e-02 -8.4349792e-03 -7.0651477e-02 
0.0000000e+00 0.0000000e+00 0.0000000e+00 
1.6884620e-02 4.6156747e-04 -4.7887221e-03 
8.1783225e-03 4.0291406e-04 -2.6789651e-03 
6.8968173e-02 -6.6219210e-03 -7.2987746e-02 
0.0000000e+00 0.0000000e+00 0.0000000e+00 
2.5302420e-02 1.1827257e-03 -1.1210757e-02 
6.2120175e-03 3.5082524e-04 -2.2514221e-03 
1.7395056e-02 1.3490825e-03 -9.1651048e-03 
6.4777275e-02 -1.2028683e-03 -6.6452507e-02 
4.5123103e-02 3.8856625e-03 -3.1624813e-02 
1.2312095e-02 1.2081719e-03 -7.1185383e-03 
0.0000000e+00 0.0000000e+00 0.0000000e+00 
3.2690580e-02 2.6506485e-03 -1.7591528e-02 
6.9450669e-02 -4.8251666e-03 -7.5095246e-02 
4.5708201e-03 2.8484858e-04 -1.9761805e-03 
2.4899486e-02 2.6078915e-03 -1.5478404e-02 
6.0847703e-02 2.1403347e-03 -5.7913904e-02 
9.3416925e-03 9.8624625e-04 -6.1977780e-03 
1.8798982e-02 2.3006389e-03 -1.3557414e-02 
5.6000719e-02 3.5531532e-03 -4.8635408e-02 
0.0000000e+00 0.0000000e+00 0.0000000e+00 
3.9408570e-02 4.1216986e-03 -2.4380708e-02 
7.0125396e-02 -3.0548116e-03 -7.6978712e-02 
5.1057149e-02 4.6255894e-03 -4.0000462e-02 
3.3652331e-03 2.1525214e-04 -1.7937320e-03 
3.1596456e-02 3.8998495e-03 -2.2425335e-02 
6.5814042e-02 4.7850863e-04 -6.7906707e-02 
1.4157990e-02 1.8953471e-03 -1.1936199e-02 
6.8213713e-03 7.5696049e-04 -5.5700272e-03 
2.4790113e-02 3.4181727e-03 -2.0469008e-02 
7.4854412e-02 -1.0279545e-02 -8.1236930e-02 
7.4925500e-02 -8.4864580e-03 -8.3806879e-02 
7.5200222e-02 -6.6966331e-03 -8.6131083e-02 
0.0000000e+00 0.0000000e+00 0.0000000e+00 
4.5725084e-02 5.3318330e-03 -3.1846585e-02 
7.0970720e-02 -1.3160852e-03 -7.8628955e-02 
1.0428048e-02 1.4750709e-03 -1.0921681e-02 
1.9054406e-02 2.8402156e-03 -1.8804175e-02 
2.2783353e-03 1.5103574e-04 -1.6706281e-03 
3.7795079e-02 4.9895084e-03 -2.9977661e-02 
6.2037681e-02 3.7170058e-03 -5.8829958e-02 
4.6319010e-03 5.3969922e-04 -5.1801745e-03 
3.0396269e-02 4.3983481e-03 -2.8137100e-02 
7.5664878e-02 -4.9182560e-03 -8.8218695e-02 
5.7121734e-02 5.0864460e-03 -4.9221556e-02 
6.6944569e-02 2.1300502e-03 -6.9078388e-02 
1.4063039e-02 2.2429260e-03 -1.7496755e-02 
7.0679996e-03 1.0697623e-03 -1.0231875e-02 
2.3730234e-02 3.6994473e-03 -2.6463429e-02 
7.1958483e-02 3.9324847e-04 -8.0022542e-02 
0.0000000e+00 0.0000000e+00 0.0000000e+00 
5.1979397e-02 6.1897409e-03 -4.0117848e-02 
7.6310788e-02 -3.1574618e-03 -9.0069859e-02 
1.2717525e-03 9.1949994e-05 -1.5936897e-03 
4.3651526e-02 5.7968409e-03 -3.8307527e-02 
2.5817722e-03 3.3498091e-04 -4.9453604e-03 
3.5682521e-02 5.1634179e-03 -3.6564499e-02 
9.5738867e-03 1.6574826e-03 -1.6603100e-02 
1.7679934e-02 2.9683707e-03 -2.5108766e-02 
8.0996311e-02 -1.0291281e-02 -9.5304559e-02 
3.9470217e-03 6.8113520e-04 -9.8132628e-03 
2.8189164e-02 4.4058811e-03 -3.4967797e-02 
6.3244586e-02 5.3513904e-03 -5.9327897e-02 
8.1076780e-02 -8.5217572e-03 -9.7851093e-02 
6.8137029e-02 3.7832182e-03 -6.9910541e-02 
7.7122329e-02 -1.4172774e-03 -9.1674325e-02 
8.1350371e-02 -6.7539843e-03 -1.0015197e-01 
7.3060737e-02 2.0854607e-03 -8.1123406e-02 
0.0000000e+00 0.0000000e+00 0.0000000e+00 
5.8189853e-02 6.7435455e-03 -4.9266225e-02 
3.0237866e-04 3.4594849e-05 -1.5616122e-03 
4.9325602e-02 6.3367107e-03 -4.7495397e-02 
1.2073007e-02 2.2395172e-03 -2.4092967e-02 
5.3508181e-03 1.0882754e-03 -1.6027416e-02 
2.1165325e-02 3.5967474e-03 -3.3623015e-02 
6.1523137e-04 1.3396941e-04 -4.8368130e-03 
4.0720762e-02 5.7071052e-03 -4.5831934e-02 
8.1804574e-02 -4.9936980e-03 -1.0221108e-01 
7.8080383e-02 3.0464135e-04 -9.3011443e-02 
9.4475619e-04 2.9709400e-04 -9.6087659e-03 
3.2438921e-02 4.9420829e-03 -4.4318842e-02 
8.2432878e-02 -3.2450518e-03 -1.0402563e-01 
6.7690143e-03 1.5220915e-03 -2.3425900e-02 
1.4525451e-02 2.7748002e-03 -3.2590871e-02 
6.9394248e-02 5.4734300e-03 -7.0339530e-02 
0.0000000e+00 0.0000000e+00 0.0000000e+00 
6.4399005e-02 7.0624105e-03 -5.9323992e-02 
7.4254466e-02 3.7797076e-03 -8.1886534e-02 
1.2903971e-03 5.2419050e-04 -1.5736278e-02 
-6.4780764e-04 -2.6073020e-05 -1.5719682e-03 
2.4506631e-02 4.1067336e-03 -4.3032170e-02 
5.4876002e-02 6.6623965e-03 -5.7580615e-02 
-1.3141684e-03 -7.7557212e-05 -4.8418421e-03 
4.5581778e-02 6.0616112e-03 -5.5982181e-02 
8.3224021e-02 -1.5097022e-03 -1.0558518e-01 
8.7057606e-02 -1.0289683e-02 -1.1024858e-01 
7.9165940e-02 2.0162432e-03 -9.4051716e-02 
8.7147358e-02 -8.5427489e-03 -1.1276482e-01 
8.1614888e-03 1.9562765e-03 -3.1883185e-02 
3.6510704e-02 5.3228708e-03 -5.4546998e-02 
-1.9982051e-03 -1.0263528e-04 -9.5957072e-03 
8.7422593e-02 -6.7963283e-03 -1.1503595e-01 
1.6393239e-03 8.1040257e-04 -2.3073441e-02 
1.6885144e-02 3.2424240e-03 -4.2023359e-02 
8.7871814e-02 -5.0545390e-03 -1.1706230e-01 
-2.6948755e-03 -5.4565296e-05 -1.5701426e-02 
2.7703834e-02 4.5010486e-03 -5.3327934e-02 
8.4164575e-02 2.1406157e-04 -1.0687190e-01 
0.0000000e+00 0.0000000e+00 0.0000000e+00 
7.0600625e-02 7.2144567e-03 -7.0305048e-02 
7.5543084e-02 5.4990989e-03 -8.2263811e-02 
-1.5946350e-03 -9.7134738e-05 -1.6252257e-03 
6.0343615e-02 6.8310597e-03 -6.8584307e-02 
8.0361548e-02 3.7300979e-03 -9.4759951e-02 
8.8490362e-02 -3.3202042e-03 -1.1883932e-01 
1.9781745e-03 1.1438693e-03 -3.1503336e-02 
-3.2374074e-03 -3.1924464e-04 -4.9573295e-03 
9.5060919e-03 2.3722730e-03 -4.1322872e-02 
5.0308584e-02 6.2707612e-03 -6.7036689e-02 
1.9143422e-02 3.6370055e-03 -5.2367772e-02 
-3.4004202e-03 9.1225257e-05 -2.3021251e-02 
-4.9323313e-03 -5.4468654e-04 -9.7676530e-03 
4.0438794e-02 5.5774586e-03 -6.5669162e-02 
8.5241162e-02 1.9316959e-03 -1.0786185e-01 
8.9270023e-02 -1.5944041e-03 -1.2035698e-01 
0.0000000e+00 0.0000000e+00 0.0000000e+00 
9.3041385e-02 -1.0275846e-02 -1.2605042e-01 
0.0000000e+00 0.0000000e+00 0.0000000e+00 
-9.6458766e-03 5.7719631e-03 -2.9538331e-04 
-6.6688336e-03 -6.7191508e-04 -1.5916072e-02 
3.0772374e-02 4.7956003e-03 -6.4516151e-02 
9.3140462e-02 -8.5507909e-03 -1.2853286e-01 
2.2915119e-03 1.5079548e-03 -4.0939994e-02 
-6.6365816e-03 3.4021693e-03 -6.7123948e-04 
0.0000000e+00 0.0000000e+00 0.0000000e+00 
-1.6259967e-02 8.8490600e-03 -1.8837772e-03 
0.0000000e+00 0.0000000e+00 0.0000000e+00 
7.6787255e-02 7.2531980e-03 -8.2211916e-02 
-4.1129518e-03 3.3430389e-04 -3.1441228e-02 
1.0785266e-02 2.7586648e-03 -5.1695810e-02 
9.3419460e-02 -6.8253543e-03 -1.3077120e-01 
6.5745684e-02 6.8913440e-03 -8.0511171e-02 
-6.2864804e-03 2.6257789e-03 -8.4754323e-04 
-1.3989131e-02 7.2462210e-03 -2.7384852e-03 
-2.5542870e-03 -1.8944496e-04 -1.7218258e-03 
8.1673024e-02 5.4615319e-03 -9.5099948e-02 
5.4932554e-02 6.3758500e-03 -7.9004939e-02 
-1.2758352e-02 5.4396715e-03 -3.2935185e-03 
-5.1851865e-03 -6.1860747e-04 -5.1890140e-03 
0.0000000e+00 0.0000000e+00 0.0000000e+00 
-2.2435655e-02 1.1364921e-02 -5.0417474e-03 
9.0201180e-02 1.2414455e-04 -1.2160004e-01 
9.3867735e-02 -5.1024871e-03 -1.3276347e-01 
-6.0430503e-03 2.0532611e-03 -9.5998575e-04 
-2.0718290e-02 9.5076066e-03 -6.3144521e-03 
-8.4257789e-03 -6.4943936e-04 -2.3260901e-02 
2.1301545e-02 3.9631198e-03 -6.3610502e-02 
8.6440318e-02 3.6515722e-03 -1.0852767e-01 
-1.2379135e-02 4.2809172e-03 -3.6991868e-03 
-1.9569282e-02 7.7886120e-03 -7.2686976e-03 
-7.9086124e-03 -1.0610849e-03 -1.0135219e-02 
4.4250423e-02 5.7372748e-03 -7.7693534e-02 
0.0000000e+00 0.0000000e+00 0.0000000e+00 
-2.8607954e-02 1.3045366e-02 -9.7614393e-03 
9.4482030e-02 -3.3841923e-03 -1.3450420e-01 
2.5711488e-03 1.8851557e-03 -5.1329514e-02 
-5.9795566e-03 1.6063435e-03 -1.0592218e-03 
-2.7246588e-02 1.1259951e-02 -1.1387534e-02 
-4.8327249e-03 6.5650357e-04 -4.0878397e-02 
-1.8899152e-02 6.1737526e-03 -8.0387692e-03 
-1.2189798e-02 3.3161674e-03 -4.0605770e-03 
-2.6212345e-02 9.4383966e-03 -1.2702978e-02 
-1.0693970e-02 -1.3498460e-03 -1.6387126e-02 
3.3731301e-02 5.0108592e-03 -7.6599535e-02 
-1.0186382e-02 -4.7409099e-04 -3.1693756e-02 
1.1996209e-02 3.1100487e-03 -6.2978539e-02 
9.1274271e-02 1.8391879e-03 -1.2254920e-01 
0.0000000e+00 0.0000000e+00 0.0000000e+00 
-3.4692064e-02 1.4330521e-02 -1.5964846e-02 
0.0000000e+00 0.0000000e+00 0.0000000e+00 
8.2947552e-02 7.2178662e-03 -9.5040426e-02 
-1.8645178e-02 4.8227383e-03 -8.7410162e-03 
-2.5561168e-02 7.7195023e-03 -1.3826455e-02 
9.5256335e-02 -1.6711915e-03 -1.3598406e-01 
7.1090771e-02 6.8802016e-03 -9.3358691e-02 
-5.9754264e-03 1.2189227e-03 -1.1689653e-03 
-3.3646007e-02 1.2533561e-02 -1.7878852e-02 
-3.5454147e-03 -3.2138094e-04 -1.8629119e-03 
5.9473169e-02 6.4103661e-03 -9.1886568e-02 
9.8949924e-02 -1.0250500e-02 -1.4269532e-01 
-1.2175290e-02 2.4735687e-03 -4.4462844e-03 
-3.2779489e-02 1.0708259e-02 -1.9498056e-02 
-7.2085003e-03 -1.0146553e-03 -5.5563559e-03 
-1.3508673e-02 -1.4172569e-03 -2.3797629e-02 
2.3369065e-02 4.2303311e-03 -7.5746845e-02 
8.7770548e-02 5.3844140e-03 -1.0884211e-01 
9.9058400e-02 -8.5468315e-03 -1.4514279e-01 
-2.5229347e-02 6.0861313e-03 -1.4866616e-02 
-5.5618620e-03 1.0320285e-03 -5.1275867e-02 
9.9342758e-02 -6.8421277e-03 -1.4734758e-01 
4.7967495e-02 5.8299199e-03 -9.0621555e-02 
2.8120173e-03 2.2603782e-03 -6.2637839e-02 
-1.8599111e-02 3.5801428e-03 -9.4684451e-03 
-3.2184662e-02 8.8941442e-03 -2.0924702e-02 
-1.0986036e-02 -1.6834492e-03 -1.0722074e-02 
-1.1937831e-02 -1.7269894e-04 -4.1135927e-02 
0.0000000e+00 0.0000000e+00 0.0000000e+00 
-4.0788712e-02 1.5299260e-02 -2.3549773e-02 
9.6183694e-02 3.7433146e-05 -1.3719015e-01 
-6.0306711e-03 8.5559691e-04 -1.3102649e-03 
-3.9964670e-02 1.3506532e-02 -2.5689256e-02 
9.2478783e-02 3.5565694e-03 -1.2318319e-01 
9.9793008e-02 -5.1385400e-03 -1.4930632e-01 
-1.2276517e-02 1.6725822e-03 -4.9145039e-03 
-3.9260650e-02 1.1673839e-02 -2.7549423e-02 
1.3141652e-02 3.4255146e-03 -7.5156926e-02 
-1.6313757e-02 -1.2722202e-03 -3.2259583e-02 
3.6598204e-02 5.1666325e-03 -8.9577970e-02 
-2.5189993e-02 4.5521690e-03 -1.5914719e-02 
-3.1883476e-02 7.1314167e-03 -2.2251430e-02 
-1.4852646e-02 -2.0941435e-03 -1.7142321e-02 
-1.8754255e-02 2.3792815e-03 -1.0297667e-02 
-3.8764791e-02 9.8287352e-03 -2.9215288e-02 
1.0040696e-01 -3.4375035e-03 -1.5101321e-01 
0.0000000e+00 0.0000000e+00 0.0000000e+00 
8.9071426e-02 7.1358545e-03 -1.0878237e-01 
0.0000000e+00 0.0000000e+00 0.0000000e+00 
-4.6890234e-02 1.6060399e-02 -3.2412398e-02 
-4.6304785e-03 -5.2758299e-04 -2.0541332e-03 
-1.3675413e-02 2.1676439e-04 -5.1537034e-02 
-6.3021548e-03 1.4354214e-03 -6.2598561e-02 
7.6381897e-02 6.8240853e-03 -1.0711924e-01 
9.7257241e-02 1.7443500e-03 -1.3810696e-01 
2.5357901e-02 4.4496731e-03 -8.8772881e-02 
-6.1447243e-03 4.9218130e-04 -1.5119375e-03 
-3.1856546e-02 5.4003647e-03 -2.3553043e-02 
-4.6233313e-02 1.4268602e-02 -3.4720830e-02 
-1.8726206e-02 -2.1943354e-03 -2.4640213e-02 
-2.5388495e-02 3.0404613e-03 -1.7038692e-02 
-3.8518036e-02 7.9859662e-03 -3.0760486e-02 
-9.3724922e-03 -1.5555495e-03 -6.0849775e-03 
6.3943085e-02 6.3993169e-03 -1.0567614e-01 
3.0142326e-03 2.6226106e-03 -7.4845987e-02 
-1.2519779e-02 8.4802620e-04 -5.5300486e-03 
-4.5669621e-02 1.2439941e-02 -3.6762087e-02 
-1.9089529e-02 -9.6048561e-04 -4.1710501e-02 
1.0118022e-01 -1.7395263e-03 -1.5245978e-01 
9.3825834e-02 5.2839887e-03 -1.2348145e-01 
-1.4299071e-02 -2.4143593e-03 -1.1597519e-02 
5.1605941e-02 5.8771949e-03 -1.0444945e-01 
-1.9111063e-02 1.1428932e-03 -1.1289854e-02 
-4.5277577e-02 1.0583089e-02 -3.8604205e-02 
1.0478487e-01 -1.0214118e-02 -1.6017113e-01 
1.4228123e-02 3.7070823e-03 -8.8222942e-02 
-3.2107250e-02 3.6813064e-03 -2.4874995e-02 
-3.8537885e-02 6.1526029e-03 -3.2239110e-02 
-2.2564797e-02 -2.0286760e-03 -3.3139263e-02 
1.0490286e-01 -8.5314695e-03 -1.6258399e-01 
1.0519375e-01 -6.8473156e-03 -1.6475594e-01 
0.0000000e+00 0.0000000e+00 0.0000000e+00 
-5.2997762e-02 1.6677182e-02 -4.2458102e-02 
-1.9254064e-02 -2.8609958e-03 -1.8204935e-02 
3.9388175e-02 5.2796931e-03 -1.0344820e-01 
9.8468749e-02 3.4537448e-03 -1.3871792e-01 
1.0210773e-01 -4.3928248e-05 -1.5363516e-01 
-6.3729462e-03 9.9225769e-05 -1.8252961e-03 
-2.5856201e-02 1.4869571e-03 -1.8267596e-02 
-4.5104367e-02 8.7107863e-03 -4.0302428e-02 
-5.2460526e-02 1.4889588e-02 -4.4886777e-02 
-1.5399245e-02 6.5756542e-04 -6.2864255e-02 
-1.2948504e-02 -6.3542797e-05 -6.3647130e-03 
-5.2013240e-02 1.3069339e-02 -4.7056787e-02 
-2.1828317e-02 -5.3600559e-04 -5.2110367e-02 
-7.0551543e-03 1.8459290e-03 -7.4824266e-02 
1.0564810e-01 -5.1632447e-03 -1.6668285e-01 
-3.8829589e-02 4.3139007e-03 -3.3674005e-02 
0.0000000e+00 0.0000000e+00 0.0000000e+00 
9.5150338e-02 7.0258478e-03 -1.2342722e-01 
-1.9774058e-02 -2.3146760e-04 -1.2455184e-02 
-5.1717735e-02 1.1217479e-02 -4.9020596e-02 
-2.4166517e-02 -2.9163885e-03 -2.5796203e-02 
2.7279660e-02 4.6316264e-03 -1.0268425e-01 
3.1802238e-03 2.9651375e-03 -8.7941816e-02 
-3.2642375e-02 1.9326228e-03 -2.6213898e-02 
-4.5176071e-02 6.8277824e-03 -4.1892058e-02 
-5.8593931e-03 -8.7649474e-04 -2.2587716e-03 
-2.6348534e-02 -1.6707694e-03 -4.2596804e-02 
8.1619609e-02 6.7412431e-03 -1.2178260e-01 
1.0626451e-01 -3.4802991e-03 -1.6835897e-01 
-1.1962356e-02 -2.2305529e-03 -6.9377619e-03 
6.8350170e-02 6.3604533e-03 -1.2036488e-01 
1.0318462e-01 1.6512326e-03 -1.5452689e-01 
-2.6647710e-02 -1.5797728e-04 -1.9548495e-02 
-5.1618630e-02 9.3408523e-03 -5.0817653e-02 
0.0000000e+00 0.0000000e+00 0.0000000e+00 
-5.9099763e-02 1.7196716e-02 -5.3605783e-02 
9.9831557e-02 5.1712935e-03 -1.3900748e-01 
-6.7723585e-03 -3.6500994e-04 -2.3461680e-03 
-5.8648810e-02 1.5415951e-02 -5.6114605e-02 
-1.8038120e-02 -3.1345473e-03 -1.2788586e-02 
5.5177311e-02 5.8952484e-03 -1.1917026e-01 
-2.9006825e-02 -2.6784003e-03 -3.4326522e-02 
1.5263263e-02 3.9583868e-03 -1.0217015e-01 
1.0703977e-01 -1.7988331e-03 -1.6977674e-01 
-1.3878326e-02 -1.2648128e-03 -7.3962638e-03 
-3.9407472e-02 2.4568997e-03 -3.5041169e-02 
-4.5508619e-02 4.9353030e-03 -4.3379142e-02 
-5.8294217e-02 1.3608107e-02 -5.8370424e-02 
-2.4530091e-02 -4.6513670e-05 -6.3433908e-02 
-1.7111247e-02 1.1200481e-03 -7.5096693e-02 
-7.8209370e-03 2.2488911e-03 -8.7939057e-02 
-3.3495859e-02 1.2706958e-04 -2.7486839e-02 
-5.1744748e-02 7.4466054e-03 -5.2468708e-02 
-2.4013358e-02 -3.5020600e-03 -1.9582079e-02 
-3.0072806e-02 -1.1907828e-03 -5.2989830e-02 
4.2113142e-02 5.3631946e-03 -1.1820433e-01 
-2.0932011e-02 -1.7808088e-03 -1.3627186e-02 
-5.8082496e-02 1.1769870e-02 -6.0412284e-02 
1.1054746e-01 -1.0166985e-02 -1.7846743e-01 
1.0440442e-01 3.3490386e-03 -1.5512207e-01 
1.1067507e-01 -8.5050779e-03 -1.8084701e-01 
1.0797026e-01 -1.1833012e-04 -1.7092705e-01 
3.3139793e-03 3.2848866e-03 -1.0191692e-01 
-2.7875129e-02 -1.9177951e-03 -2.0672230e-02 
-5.8051702e-02 9.9053133e-03 -6.2267075e-02 
-3.3768097e-02 -2.2467668e-03 -4.3784790e-02 
1.1097337e-01 -6.8413257e-03 -1.8298770e-01 
-4.6110676e-02 3.0301162e-03 -4.4730528e-02 
-2.9886402e-02 -3.4524677e-03 -2.7250019e-02 
2.9144603e-02 4.7852164e-03 -1.1747526e-01 
0.0000000e+00 0.0000000e+00 0.0000000e+00 
-6.5184560e-02 1.7650144e-02 -6.5788479e-02 
-4.0279795e-02 5.7166768e-04 -3.6253393e-02 
-5.2113061e-02 5.5394276e-03 -5.3969391e-02 
1.0117756e-01 6.9004098e-03 -1.3896321e-01 
-8.3794965e-03 -1.2568165e-03 -2.8375328e-03 
-6.4795478e-02 1.5879148e-02 -6.8345764e-02 
8.6803285e-02 6.6439776e-03 -1.3733717e-01 
1.1143334e-01 -5.1769173e-03 -1.8488511e-01 
-1.5689730e-02 -2.6423324e-03 -8.0745098e-03 
-6.4513521e-02 1.4086292e-02 -7.0653836e-02 
-2.7198201e-02 4.7148883e-04 -7.5663471e-02 
7.2699314e-02 6.3059633e-03 -1.3594223e-01 
-1.8813648e-02 1.5831081e-03 -8.8219905e-02 
-3.4717972e-02 -1.7351151e-03 -2.8501777e-02 
-5.8228548e-02 8.0206286e-03 -6.3945307e-02 
-3.3740378e-02 -6.4432171e-04 -6.4302311e-02 
1.0905259e-01 1.5626611e-03 -1.7179989e-01 
-2.2624260e-02 -3.4549738e-03 -1.4269731e-02 
-6.4371483e-02 1.2266774e-02 -7.2740733e-02 
-3.5663906e-02 -3.1208852e-03 -3.5803072e-02 
1.6254556e-02 4.1837264e-03 -1.1699227e-01 
1.1205421e-01 -3.5126134e-03 -1.8653375e-01 
5.8689731e-02 5.8955553e-03 -1.3477490e-01 
1.0578226e-01 5.0537269e-03 -1.5540887e-01 
-3.8453862e-02 -1.7012921e-03 -5.4165266e-02 
-8.5985771e-03 2.6353411e-03 -1.0193285e-01 
-4.6982507e-02 1.1144311e-03 -4.5867405e-02 
-5.2732012e-02 3.6244335e-03 -5.5284887e-02 
4.4782284e-02 5.4269734e-03 -1.3383860e-01 
-2.9402989e-02 -3.7329333e-03 -2.1226731e-02 
-6.4400196e-02 1.0422612e-02 -7.4623858e-02 
-4.1467463e-02 -1.3355612e-03 -3.7154694e-02 
-5.8629534e-02 6.1229228e-03 -6.5437091e-02 
1.1283368e-01 -1.8486572e-03 -1.8792696e-01 
-7.1240504e-02 1.8058291e-02 -7.8952097e-02 
-7.0896399e-02 1.6299524e-02 -8.1533719e-02 
3.4200201e-03 3.5814547e-03 -1.1676399e-01 
-4.1358081e-02 -2.6164260e-03 -4.5257925e-02 
1.1028161e-01 3.2464475e-03 -1.7238518e-01 
-7.0670781e-02 1.4523459e-02 -8.3868849e-02 
-2.9836489e-02 9.9288163e-04 -8.8785787e-02 
3.0961197e-02 4.9177905e-03 -1.3313886e-01 
-3.6093469e-02 -3.6175487e-03 -2.8967097e-02 
-6.4622445e-02 8.5591095e-03 -7.6306958e-02 
-3.7356321e-02 -7.0996602e-05 -7.6521293e-02 
1.1623864e-01 -1.0109282e-02 -1.9757492e-01 
-5.3596828e-02 1.7075190e-03 -5.6348925e-02 
1.0714791e-01 6.7679286e-03 -1.5537805e-01 
-4.3070084e-02 -1.0991621e-03 -6.5461402e-02 
-2.0507842e-02 2.0333883e-03 -1.0222310e-01 
1.1376917e-01 -1.8464199e-04 -1.8905717e-01 
1.1637597e-01 -8.4678995e-03 -1.9992308e-01 
-7.0585442e-02 1.2725100e-02 -8.5976840e-02 
-4.8131691e-02 -8.0397718e-04 -4.6669830e-02 
-5.9261904e-02 4.2193959e-03 -6.6709836e-02 
9.1931879e-02 6.5404574e-03 -1.5377069e-01 
1.1668230e-01 -6.8244274e-03 -2.0203460e-01 
7.6993497e-02 6.2440286e-03 -1.5239670e-01 
-4.2729920e-02 -3.2431391e-03 -3.7544812e-02 
-6.5052856e-02 6.6831972e-03 -7.7777799e-02 
1.7208727e-02 4.3874522e-03 -1.3268238e-01 
-7.0664406e-02 1.0905299e-02 -8.7868167e-02 
-4.6976487e-02 -2.0174071e-03 -5.5624064e-02 
-9.3862701e-03 3.0008256e-03 -1.1679734e-01 
1.1714899e-01 -5.1797640e-03 -2.0390510e-01 
6.2148878e-02 5.8860489e-03 -1.5125309e-01 
1.1167385e-01 4.9362192e-03 -1.7267394e-01 
1.1485841e-01 1.4805362e-03 -1.8991629e-01 
-7.7257735e-02 1.8434465e-02 -9.3053395e-02 
1.1777576e-01 -3.5344667e-03 -2.0552951e-01 
-5.4713409e-02 -2.0280415e-04 -5.7071191e-02 
-6.0120590e-02 2.3179829e-03 -6.7709697e-02 
4.7402473e-02 5.4781706e-03 -1.5034189e-01 
-7.6947045e-02 1.6689951e-02 -9.5641615e-02 
-7.0926198e-02 9.0681670e-03 -8.9542317e-02 
-4.0925725e-02 5.0329047e-04 -8.9635082e-02 
-7.6765192e-02 1.4931828e-02 -9.7985546e-02 
-4.7622692e-02 -4.7835483e-04 -7.7664495e-02 
-3.2448140e-02 1.5020433e-03 -1.0278981e-01 
-4.9315781e-02 -2.7134120e-03 -4.7000590e-02 
-6.5698092e-02 4.8026467e-03 -7.9007554e-02 
3.5028563e-03 3.8561575e-03 -1.3247579e-01 
1.1856099e-01 -1.8886970e-03 -2.0690206e-01 
-7.6725493e-02 1.3155607e-02 -1.0009788e-01 
-5.2523965e-02 -1.3762024e-03 -6.6902342e-02 
-2.2194288e-02 2.4635962e-03 -1.1709707e-01 
3.2736207e-02 5.0351342e-03 -1.4966683e-01 
-7.1383216e-02 7.2198319e-03 -9.0986533e-02 
1.1609727e-01 3.1486241e-03 -1.9049650e-01 
1.1305752e-01 6.6339809e-03 -1.7265931e-01 
-7.6846257e-02 1.1361440e-02 -1.0198415e-01 
9.7004276e-02 6.4360474e-03 -1.7107075e-01 
-6.1213331e-02 4.2621381e-04 -6.8368728e-02 
-6.6553865e-02 2.9250911e-03 -7.9953033e-02 
8.1234516e-02 6.1800525e-03 -1.6971642e-01 
-5.5846797e-02 -2.1008528e-03 -5.7356064e-02 
-1.0181715e-02 3.3440705e-03 -1.3252470e-01 
1.1950292e-01 -2.4212707e-04 -2.0801644e-01 
1.2185916e-01 -1.0041149e-02 -2.1748501e-01 
1.8131496e-02 4.5736203e-03 -1.4923275e-01 
1.2200625e-01 -8.4201205e-03 -2.1980387e-01 
1.2232105e-01 -6.7968288e-03 -2.2188849e-01 
-5.2116430e-02 1.3766658e-04 -9.0764348e-02 
6.5558678e-02 5.8721134e-03 -1.6859385e-01 
-8.3228308e-02 1.8787033e-02 -1.0805787e-01 
-7.7142052e-02 9.5523925e-03 -1.0364127e-01 
-4.4452595e-02 1.0630836e-03 -1.0363273e-01 
-7.2041547e-02 5.3672711e-03 -9.2176010e-02 
-8.2943301e-02 1.7058316e-02 -1.1064011e-01 
-8.2795779e-02 1.5318863e-02 -1.1298006e-01 
-5.8003185e-02 -7.2578898e-04 -7.9087366e-02 
-3.5035183e-02 1.9904462e-03 -1.1766567e-01 
1.2279524e-01 -5.1719563e-03 -2.2373471e-01 
1.1750329e-01 4.8220292e-03 -1.9079096e-01 
4.9978783e-02 5.5218774e-03 -1.6770424e-01 
1.2060007e-01 1.4060937e-03 -2.0886618e-01 
3.5666724e-03 4.1112570e-03 -1.4904463e-01 
-8.2792819e-02 1.3564929e-02 -1.1508543e-01 
-7.7623100e-02 7.7334332e-03 -1.0505689e-01 
1.2342893e-01 -3.5459116e-03 -2.2533798e-01 
-6.2315863e-02 -1.4530428e-03 -6.8618267e-02 
-6.7631409e-02 1.0572955e-03 -8.0562537e-02 
-2.3872582e-02 2.8707216e-03 -1.3283327e-01 
-7.2898198e-02 3.5173251e-03 -9.3076114e-02 
3.4474900e-02 5.1417125e-03 -1.6705009e-01 
-8.2948189e-02 1.1796304e-02 -1.1695829e-01 
1.2422103e-01 -1.9187978e-03 -2.2669333e-01 
-5.6554763e-02 7.3566063e-04 -1.0475009e-01 
1.2184910e-01 3.0572948e-03 -2.0944519e-01 
-1.0982400e-02 3.6658109e-03 -1.4910695e-01 
1.1890349e-01 6.5022628e-03 -1.9079464e-01 
-7.8294935e-02 5.9104216e-03 -1.0620991e-01 
-6.3415687e-02 -8.5534241e-05 -9.2170130e-02 
-8.3273115e-02 1.0015170e-02 -1.1859408e-01 
-4.7939685e-02 1.6002824e-03 -1.1850379e-01 
1.0201946e-01 6.3342365e-03 -1.8922498e-01 
1.9027585e-02 4.7458225e-03 -1.6663484e-01 
-8.9146158e-02 1.9121121e-02 -1.2393784e-01 
8.5423436e-02 6.1175559e-03 -1.8788939e-01 
-8.8881709e-02 1.7409352e-02 -1.2650556e-01 
-6.8716623e-02 -7.9934186e-04 -8.0784918e-02 
-8.8761605e-02 1.5689012e-02 -1.2883296e-01 
-3.7598588e-02 2.4544298e-03 -1.3340407e-01 
1.2517037e-01 -2.9034712e-04 -2.2779554e-01 
-7.3967618e-02 1.6757496e-03 -9.3646789e-02 
6.8921841e-02 5.8573554e-03 -1.8678590e-01 
1.2740961e-01 -9.9627236e-03 -2.3818952e-01 
-8.3775870e-02 8.2253812e-03 -1.1998125e-01 
1.2756645e-01 -8.3619153e-03 -2.4048124e-01 
-8.8788458e-02 1.3957127e-02 -1.3092408e-01 
1.2789001e-01 -6.7587244e-03 -2.4254124e-01 
-7.9155691e-02 4.0890732e-03 -1.0707235e-01 
3.6151700e-03 4.3494038e-03 -1.6646224e-01 
5.2514931e-02 5.5616844e-03 -1.8591517e-01 
1.2326830e-01 4.7132921e-03 -2.0974830e-01 
-2.5541723e-02 3.2545085e-03 -1.4942324e-01 
-8.8972586e-02 1.2213322e-02 -1.3277861e-01 
1.2837223e-01 -5.1536696e-03 -2.4436572e-01 
1.2627610e-01 1.3400997e-03 -2.2863947e-01 
-6.0940030e-02 1.3091825e-03 -1.1961079e-01 
-6.8762456e-02 5.3427932e-04 -1.0613996e-01 
-8.4461417e-02 6.4316049e-03 -1.2110190e-01 
3.6181327e-02 5.2409288e-03 -1.8527890e-01 
1.2901355e-01 -3.5470498e-03 -2.4595066e-01 
-5.1388615e-02 2.1116237e-03 -1.3423823e-01 
-7.5044484e-02 -1.5655214e-04 -9.3848532e-02 
-8.9322530e-02 1.0459104e-02 -1.3439120e-01 
-1.1785827e-02 3.9678913e-03 -1.6653578e-01 
-9.5006797e-02 1.9439839e-02 -1.4067088e-01 
-8.0222380e-02 2.2742686e-03 -1.0761257e-01 
-9.4759522e-02 1.7745851e-02 -1.4321860e-01 
1.2468373e-01 6.3752113e-03 -2.0977189e-01 
1.2981327e-01 -1.9389274e-03 -2.4729183e-01 
-9.4661837e-02 1.6044892e-02 -1.4552801e-01 
-4.0138489e-02 2.8934126e-03 -1.4999593e-01 
1.9900802e-02 4.9071272e-03 -1.8487952e-01 
1.2753544e-01 2.9735557e-03 -2.2922040e-01 
1.0697656e-01 6.2372660e-03 -2.0822122e-01 
-8.9844911e-02 8.6973538e-03 -1.3575128e-01 
8.9560881e-02 6.0588002e-03 -2.0690371e-01 
-8.5328708e-02 4.6384744e-03 -1.2193320e-01 
-9.4713243e-02 1.4334675e-02 -1.4760050e-01 
7.2240234e-02 5.8441623e-03 -2.0581782e-01 
1.3077067e-01 -3.2908323e-04 -2.4838499e-01 
-2.7200369e-02 3.6162917e-03 -1.6685839e-01 
-9.4921506e-02 1.2614779e-02 -1.4943417e-01 
3.6515197e-03 4.5732707e-03 -1.8471982e-01 
-7.4044240e-02 1.1291436e-03 -1.2098572e-01 
-6.5273712e-02 1.8560505e-03 -1.3533580e-01 
-8.1296667e-02 4.6674531e-04 -1.0779913e-01 
5.5013625e-02 5.6001041e-03 -2.0496392e-01 
1.3289046e-01 -9.8741650e-03 -2.5968046e-01 
-9.0544114e-02 6.9316831e-03 -1.3684358e-01 
1.2896720e-01 4.6113859e-03 -2.2953447e-01 
1.3305697e-01 -8.2934719e-03 -2.6194714e-01 
1.3338946e-01 -6.7103199e-03 -2.6398471e-01 
-8.6396522e-02 2.8500539e-03 -1.2244969e-01 
-9.5293089e-02 1.0886216e-02 -1.5102331e-01 
-5.4800150e-02 2.5968022e-03 -1.5082632e-01 
1.3188539e-01 1.2829939e-03 -2.4922603e-01 
3.7858569e-02 5.3353536e-03 -2.0434313e-01 
1.3388007e-01 -5.1251010e-03 -2.6578978e-01 
-1.0080699e-01 1.9745075e-02 -1.5823854e-01 
-1.0057463e-01 1.8069463e-02 -1.6076308e-01 
-1.2589666e-02 4.2526379e-03 -1.8480249e-01 
-4.2654471e-02 3.3085811e-03 -1.6743221e-01 
-9.1419578e-02 5.1657553e-03 -1.3764930e-01 
-1.0049578e-01 1.6388046e-02 -1.6305135e-01 
-9.5833256e-02 9.1510907e-03 -1.5235832e-01 
1.3452949e-01 -3.5380325e-03 -2.6735889e-01 
2.0754172e-02 5.0600835e-03 -2.0395719e-01 
-1.0056780e-01 1.4699104e-02 -1.6510292e-01 
1.3039670e-01 6.2544179e-03 -2.2957916e-01 
1.1187490e-01 6.1465489e-03 -2.2804755e-01 
1.3315501e-01 2.8980739e-03 -2.4981136e-01 
9.3647211e-02 6.0052078e-03 -2.2674765e-01 
-8.7471906e-02 1.0670773e-03 -1.2262582e-01 
-7.9261692e-02 1.6980135e-03 -1.3669642e-01 
1.3533732e-01 -1.9491493e-03 -2.6868850e-01 
-1.0079661e-01 1.3002237e-02 -1.6691484e-01 
-6.9556678e-02 2.3765726e-03 -1.5191485e-01 
7.5515153e-02 5.8340918e-03 -2.2567827e-01 
-2.8847048e-02 3.9581847e-03 -1.8512991e-01 
-9.6545830e-02 7.4121368e-03 -1.5342614e-01 
3.6783709e-03 4.7853366e-03 -2.0380814e-01 
-9.2491175e-02 3.4029249e-03 -1.3814765e-01 
5.7476838e-02 5.6388801e-03 -2.2483961e-01 
-5.8174475e-02 3.0571563e-03 -1.6825857e-01 
-1.0118710e-01 1.1298107e-02 -1.6848131e-01 
1.3630320e-01 -3.5827313e-04 -2.6977518e-01 
1.3459874e-01 4.5171769e-03 -2.5013818e-01 
1.3830205e-01 -9.7756599e-03 -2.8194996e-01 
1.3847813e-01 -8.2150014e-03 -2.8419352e-01 
-1.0654443e-01 2.0038007e-02 -1.7662537e-01 
-9.7430465e-02 5.6722100e-03 -1.5421112e-01 
3.9508956e-02 5.4269104e-03 -2.2423242e-01 
-1.0632547e-01 1.8381188e-02 -1.7912520e-01 
1.3881961e-01 -6.6518418e-03 -2.8621065e-01 
-1.3391834e-02 4.5224574e-03 -2.0389804e-01 
-1.0174345e-01 9.5882290e-03 -1.6979367e-01 
-1.0626287e-01 1.6719411e-02 -1.8139089e-01 
-4.5145805e-02 3.7019952e-03 -1.8570388e-01 
1.3742710e-01 1.2349909e-03 -2.7061571e-01 
-9.3569993e-02 1.6439379e-03 -1.3831767e-01 
1.3931882e-01 -5.0864738e-03 -2.8799842e-01 
-1.0635256e-01 1.5051403e-02 -1.8342072e-01 
-8.4415416e-02 2.2417621e-03 -1.5326145e-01 
2.1590074e-02 5.2067601e-03 -2.2385793e-01 
1.3997662e-01 -3.5190539e-03 -2.8955388e-01 
-7.3789393e-02 2.8723656e-03 -1.6933803e-01 
1.3604129e-01 6.1409028e-03 -2.5020481e-01 
-1.0246895e-01 7.8746429e-03 -1.7084069e-01 
-1.0659916e-01 1.3376810e-02 -1.8521112e-01 
1.1671393e-01 6.0629458e-03 -2.4869229e-01 
-9.8507622e-02 3.9340487e-03 -1.5469619e-01 
9.7682637e-02 5.9576427e-03 -2.4740965e-01 
-3.0480308e-02 4.2825551e-03 -2.0422877e-01 
1.3870688e-01 2.8312246e-03 -2.7120742e-01 
1.4079288e-01 -1.9495986e-03 -2.9087414e-01 
7.8747498e-02 5.8281359e-03 -2.4635596e-01 
3.6978940e-03 4.9877780e-03 -2.2371764e-01 
-1.0700638e-01 1.1696060e-02 -1.8675639e-01 
-6.1511419e-02 3.4948031e-03 -1.8652563e-01 
-1.0336329e-01 6.1595527e-03 -1.7160930e-01 
5.9906006e-02 5.6792065e-03 -2.4553134e-01 
1.4176746e-01 -3.7796444e-04 -2.9195646e-01 
-1.1221752e-01 2.0319408e-02 -1.9581818e-01 
-9.9591381e-02 2.1983914e-03 -1.5486404e-01 
-1.0757754e-01 1.0010230e-02 -1.8804874e-01 
-1.1201087e-01 1.8681676e-02 -1.9829298e-01 
1.4016202e-01 4.4311842e-03 -2.7154831e-01 
-1.1196266e-01 1.7039603e-02 -2.0053580e-01 
-4.7611636e-02 4.0760195e-03 -2.0480182e-01 
-1.4190537e-02 4.7796051e-03 -2.2381310e-01 
-8.9505975e-02 2.7621933e-03 -1.7067068e-01 
4.1134244e-02 5.5170216e-03 -2.4493629e-01 
1.4364469e-01 -9.6674236e-03 -3.0499012e-01 
-1.1206785e-01 1.5392253e-02 -2.0254412e-01 
1.4383017e-01 -8.1267387e-03 -3.0721229e-01 
1.4290060e-01 1.1961513e-03 -2.9279840e-01 
-1.0444717e-01 4.4451731e-03 -1.7208539e-01 
-7.7972068e-02 3.3456096e-03 -1.8759574e-01 
1.4418063e-01 -6.5835379e-03 -3.0921076e-01 
-1.0831544e-01 8.3208324e-03 -1.8907850e-01 
2.2410357e-02 5.3488000e-03 -2.4457166e-01 
-1.1233012e-01 1.3739333e-02 -2.0431400e-01 
1.4468852e-01 -5.0380353e-03 -3.1098305e-01 
1.4161673e-01 6.0352967e-03 -2.7163742e-01 
-3.2098814e-02 4.5917143e-03 -2.2414576e-01 
1.2149325e-01 5.9869477e-03 -2.7014403e-01 
1.4535487e-01 -3.4903416e-03 -3.1252672e-01 
-1.1275233e-01 1.2081111e-02 -2.0583998e-01 
-6.4810628e-02 3.9121049e-03 -2.0561824e-01 
1.0166728e-01 5.9165944e-03 -2.6887837e-01 
1.4419035e-01 2.7731843e-03 -2.9339798e-01 
3.7118374e-03 5.1824300e-03 -2.4443855e-01 
-1.0921970e-01 6.6295567e-03 -1.8983470e-01 
8.1937903e-02 5.8268988e-03 -2.6783977e-01 
-1.0553686e-01 2.7322018e-03 -1.7225473e-01 
1.4617970e-01 -1.9404613e-03 -3.1383946e-01 
-1.1333711e-01 1.0418353e-02 -2.0711507e-01 
-1.1782513e-01 2.0589832e-02 -2.1580544e-01 
6.2302178e-02 5.7218821e-03 -2.6702826e-01 
-1.1763000e-01 1.8971394e-02 -2.1825570e-01 
-9.4533883e-02 3.2614445e-03 -1.8891432e-01 
-1.1759480e-01 1.7349068e-02 -2.2047623e-01 
-5.0051097e-02 4.4329897e-03 -2.2471682e-01 
-1.4984273e-02 5.0260696e-03 -2.4453813e-01 
1.4565636e-01 4.3536894e-03 -2.9375393e-01 
1.4716309e-01 -3.8828062e-04 -3.1491915e-01 
-1.1771385e-01 1.5722170e-02 -2.2246395e-01 
-1.1031104e-01 4.9381770e-03 -1.9030569e-01 
4.2735751e-02 5.6067216e-03 -2.6644419e-01 
-8.2104763e-02 3.7986054e-03 -2.0667854e-01 
-1.1408688e-01 8.7521757e-03 -2.0813094e-01 
-1.1799017e-01 1.4090461e-02 -2.2421484e-01 
1.4891857e-01 -9.5496946e-03 -3.2879302e-01 
1.4911327e-01 -8.0289388e-03 -3.3099529e-01 
2.3216450e-02 5.4874801e-03 -2.6608816e-01 
1.4830542e-01 1.1664303e-03 -3.1576398e-01 
1.4947263e-01 -6.5056737e-03 -3.3297662e-01 
-3.3701398e-02 4.8877549e-03 -2.4487150e-01 
-6.8071679e-02 4.3113643e-03 -2.2552714e-01 
-1.1842598e-01 1.2454112e-02 -2.2572371e-01 
1.4712246e-01 5.9379635e-03 -2.9386580e-01 
-1.1500107e-01 7.0838677e-03 -2.0887839e-01 
1.2621257e-01 5.9187968e-03 -2.9239157e-01 
-1.1140736e-01 3.2473251e-03 -1.9047989e-01 
1.4998921e-01 -4.9800513e-03 -3.3473497e-01 
1.0560123e-01 5.8823004e-03 -2.9114269e-01 
3.7215889e-03 5.3707926e-03 -2.6596096e-01 
1.5066416e-01 -3.4521471e-03 -3.3626841e-01 
-1.1902341e-01 1.0813664e-02 -2.2698433e-01 
8.5086818e-02 5.8307170e-03 -2.9011869e-01 
1.4960491e-01 2.7239939e-03 -3.1637259e-01 
-9.9499591e-02 3.7416496e-03 -2.0798285e-01 
-1.2336647e-01 2.0849714e-02 -2.3657680e-01 
-1.2318224e-01 1.9250716e-02 -2.3900362e-01 
-5.2463390e-02 4.7750382e-03 -2.4543958e-01 
-1.2315903e-01 1.7648169e-02 -2.4120296e-01 
6.4666120e-02 5.7674196e-03 -2.8931959e-01 
1.5149762e-01 -1.9219586e-03 -3.3757512e-01 
-1.1610034e-01 5.4148379e-03 -2.0934784e-01 
-8.6187458e-02 4.2335349e-03 -2.2657714e-01 
-1.2329069e-01 1.6041572e-02 -2.4317151e-01 
-1.5771814e-02 5.2635330e-03 -2.6606345e-01 
-1.1978450e-01 9.1699416e-03 -2.2798953e-01 
4.4314465e-02 5.6967449e-03 -2.8874561e-01 
1.5108130e-01 4.2848113e-03 -3.1674425e-01 
-1.2357980e-01 1.4430736e-02 -2.4490524e-01 
1.5248980e-01 -3.8939621e-04 -3.3865354e-01 
2.4009445e-02 5.6237711e-03 -2.8839718e-01 
-1.1720377e-01 3.7456370e-03 -2.0952994e-01 
-1.2070852e-01 7.5239262e-03 -2.2873162e-01 
-1.2402812e-01 1.2815768e-02 -2.4639934e-01 
-7.1294144e-02 4.6946712e-03 -2.4624305e-01 
-3.5287071e-02 5.1724832e-03 -2.6639646e-01 
1.5412385e-01 -9.4227288e-03 -3.5335063e-01 
1.5364122e-01 1.1457121e-03 -3.3950240e-01 
1.5432754e-01 -7.9218706e-03 -3.5553426e-01 
1.5255812e-01 5.8490828e-03 -3.1687897e-01 
1.5469568e-01 -6.4185265e-03 -3.5749971e-01 
-1.0440349e-01 4.2047686e-03 -2.2786693e-01 
1.3087168e-01 5.8585664e-03 -3.1542388e-01 
-1.2463735e-01 1.1197052e-02 -2.4764825e-01 
3.7282352e-03 5.5540595e-03 -2.8827486e-01 
1.0948452e-01 5.8548275e-03 -3.1419164e-01 
1.5522090e-01 -4.9127991e-03 -3.5924541e-01 
-1.2884099e-01 2.1099425e-02 -2.5812282e-01 
-1.2181600e-01 5.8767263e-03 -2.2920275e-01 
8.8194567e-02 5.8397404e-03 -3.1318189e-01 
-1.2866716e-01 1.9519972e-02 -2.6052763e-01 
1.5495018e-01 2.6836014e-03 -3.4012086e-01 
1.5590442e-01 -3.4047374e-03 -3.6076986e-01 
-1.2865513e-01 1.7937231e-02 -2.6270729e-01 
-5.4847814e-02 5.1040210e-03 -2.6696069e-01 
-9.0220099e-02 4.6523486e-03 -2.4728226e-01 
-1.2540927e-01 9.5751978e-03 -2.4864584e-01 
6.6998395e-02 5.8161223e-03 -3.1239465e-01 
-1.2879845e-01 1.6350830e-02 -2.6465837e-01 
-1.6552175e-02 5.4933756e-03 -2.8837927e-01 
1.5674647e-01 -1.8943339e-03 -3.6207173e-01 
-1.2909937e-01 1.4760622e-02 -2.6637698e-01 
4.5871123e-02 5.7875934e-03 -3.1183007e-01 
1.5643649e-01 4.2245566e-03 -3.4050863e-01 
-1.2292691e-01 4.2288070e-03 -2.2939551e-01 
-1.2634297e-01 7.9509513e-03 -2.4938568e-01 
1.5774737e-01 -3.8151913e-04 -3.6314992e-01 
-1.2955929e-01 1.3166674e-02 -2.6785868e-01 
-7.4477638e-02 5.0638429e-03 -2.6775664e-01 
2.4790172e-02 5.7583920e-03 -3.1148845e-01 
-3.6855026e-02 5.4474089e-03 -2.8871103e-01 
-1.0924589e-01 4.6525187e-03 -2.4855726e-01 
-1.3017964e-01 1.1569260e-02 -2.6909857e-01 
1.5890772e-01 1.1338336e-03 -3.6400364e-01 
1.5792345e-01 5.7687059e-03 -3.4066609e-01 
1.5926063e-01 -9.2867924e-03 -3.7865485e-01 
1.3547042e-01 5.8062159e-03 -3.3923014e-01 
-1.2745882e-01 6.3251775e-03 -2.4986143e-01 
1.5947309e-01 -7.8058112e-03 -3.8082083e-01 
3.7326157e-03 5.7331590e-03 -3.1137019e-01 
-1.3424831e-01 2.1339302e-02 -2.8043463e-01 
1.1331721e-01 5.8341264e-03 -3.3801441e-01 
1.5984985e-01 -6.3223798e-03 -3.8277143e-01 
-1.3408443e-01 1.9779470e-02 -2.8281910e-01 
-1.3408294e-01 1.8216555e-02 -2.8498077e-01 
-5.7203789e-02 5.4215044e-03 -2.8927065e-01 
9.1261384e-02 5.8539884e-03 -3.3701864e-01 
-9.4202618e-02 5.0567303e-03 -2.6878459e-01 
1.6038360e-01 -4.8365622e-03 -3.8450548e-01 
-1.3096193e-01 9.9688320e-03 -2.7009141e-01 
-1.3423716e-01 1.6650279e-02 -2.8691627e-01 
1.6022589e-01 2.6518924e-03 -3.6463248e-01 
1.6107559e-01 -3.3483869e-03 -3.8602192e-01 
6.9299415e-02 5.8681410e-03 -3.3624285e-01 
-1.7324584e-02 5.7167038e-03 -3.1147572e-01 
-1.3454911e-01 1.5080526e-02 -2.8862187e-01 
-1.2857746e-01 4.6982588e-03 -2.5006727e-01 
-1.3190511e-01 8.3659560e-03 -2.7083187e-01 
1.6192615e-01 -1.8578432e-03 -3.8731984e-01 
4.7406271e-02 5.8795914e-03 -3.3568714e-01 
-1.3501992e-01 1.3507337e-02 -2.9009356e-01 
-7.7621830e-02 5.4204179e-03 -2.9005851e-01 
1.6172172e-01 4.1728545e-03 -3.6503654e-01 
-3.8404618e-02 5.7137661e-03 -3.1180550e-01 
-1.1402706e-01 5.0863633e-03 -2.7004457e-01 
2.5559256e-02 5.8918597e-03 -3.3535172e-01 
1.6293565e-01 -3.6487783e-04 -3.8839856e-01 
-1.3565080e-01 1.1930910e-02 -2.9132700e-01 
-1.3302942e-01 6.7613015e-03 -2.7131487e-01 
-1.3958811e-01 2.1569656e-02 -3.0350377e-01 
3.7353708e-03 5.9087971e-03 -3.3523686e-01 
1.6321830e-01 5.6967955e-03 -3.6521648e-01 
1.6410475e-01 1.1306010e-03 -3.8925771e-01 
-1.3943383e-01 2.0029504e-02 -3.0586966e-01 
1.4000873e-01 5.7616270e-03 -3.6379967e-01 
-9.8134950e-02 5.4481030e-03 -2.9107480e-01 
-1.3644305e-01 1.0351580e-02 -2.9231776e-01 
1.6432899e-01 -9.1421563e-03 -4.0469746e-01 
-5.9530841e-02 5.7287837e-03 -3.1235989e-01 
1.1709932e-01 5.8200691e-03 -3.6260034e-01 
-1.3944235e-01 1.8486433e-02 -3.0801518e-01 
1.6454998e-01 -7.6810397e-03 -4.0684656e-01 
1.6493517e-01 -6.2175177e-03 -4.0878308e-01 
-1.3960686e-01 1.6940234e-02 -3.0993703e-01 
9.4287443e-02 5.8733893e-03 -3.6161834e-01 
-1.3415598e-01 5.1551765e-03 -2.7153595e-01 
1.6547729e-01 -4.7516243e-03 -4.1050624e-01 
-1.8088445e-02 5.9343882e-03 -3.3534288e-01 
1.6543185e-01 2.6287103e-03 -3.8989723e-01 
-1.3992919e-01 1.5390814e-02 -3.1163176e-01 
7.1569482e-02 5.9235145e-03 -3.6085369e-01 
-1.3739552e-01 8.7697758e-03 -2.9306145e-01 
1.6617764e-01 -3.2833722e-03 -4.1201538e-01 
-1.4041030e-01 1.3838197e-02 -3.1309572e-01 
-8.0726451e-02 5.7656773e-03 -3.1313916e-01 
4.8920313e-02 5.9729268e-03 -3.6030644e-01 
-1.1874720e-01 5.5075302e-03 -2.9231953e-01 
1.6703658e-01 -1.8127484e-03 -4.1330998e-01 
-3.9935346e-02 5.9725472e-03 -3.3567008e-01 
1.6693680e-01 4.1295818e-03 -3.9031755e-01 
2.6317164e-02 6.0245306e-03 -3.5997674e-01 
-1.3852830e-01 7.1860121e-03 -2.9355404e-01 
-1.4105121e-01 1.2282528e-02 -3.1432515e-01 
1.6805453e-01 -3.3971212e-04 -4.1438974e-01 
-1.4486020e-01 2.1790785e-02 -3.2732199e-01 
-1.4471516e-01 2.0270355e-02 -3.2967111e-01 
-1.0201704e-01 5.8276554e-03 -3.1414344e-01 
3.7369822e-03 6.0814988e-03 -3.5986478e-01 
-1.4185307e-01 1.0724054e-02 -3.1531629e-01 
1.6844257e-01 5.6332529e-03 -3.9051958e-01 
-1.4473326e-01 1.8747145e-02 -3.3180231e-01 
-6.1828602e-02 6.0269171e-03 -3.3621873e-01 
1.4448653e-01 5.7246298e-03 -3.8912188e-01 
1.6923217e-01 1.1358014e-03 -4.1525463e-01 
-1.3966291e-01 5.6005324e-03 -2.9379221e-01 
1.2083090e-01 5.8124746e-03 -3.8793889e-01 
-1.4490755e-01 1.7220992e-02 -3.3371247e-01 
1.6932896e-01 -8.9890910e-03 -4.3147014e-01 
9.7272872e-02 5.8978077e-03 -3.8697050e-01 
1.6955822e-01 -7.5478331e-03 -4.3360288e-01 
-1.4523975e-01 1.5691820e-02 -3.3539840e-01 
1.6995166e-01 -6.1042211e-03 -4.3552586e-01 
-1.4281461e-01 9.1631007e-03 -3.1606556e-01 
-1.8843305e-02 6.1471038e-03 -3.5997078e-01 
7.3808818e-02 5.9822008e-03 -3.8621674e-01 
1.7056793e-01 2.6138708e-03 -4.1590493e-01 
1.7050198e-01 -4.6582657e-03 -4.3723867e-01 
-1.4573066e-01 1.4159643e-02 -3.3685684e-01 
-8.3791287e-02 6.1006790e-03 -3.3698902e-01 
-1.2340647e-01 5.9170422e-03 -3.1537274e-01 
1.7121053e-01 -3.2099672e-03 -4.3874099e-01 
5.0413548e-02 6.0676850e-03 -3.8567764e-01 
-1.4395584e-01 7.6000599e-03 -3.1656982e-01 
-4.1446826e-02 6.2245426e-03 -3.6029495e-01 
-1.4638116e-01 1.2624565e-02 -3.3808452e-01 
1.7207769e-01 -1.7593112e-03 -4.4003266e-01 
1.7208166e-01 4.0945797e-03 -4.1634132e-01 
2.7064239e-02 6.1566366e-03 -3.8535330e-01 
-1.0584884e-01 6.1963759e-03 -3.3798102e-01 
1.7310390e-01 -3.0626649e-04 -4.4111373e-01 
-1.5006442e-01 2.2002969e-02 -3.5188116e-01 
-1.4719230e-01 1.1086771e-02 -3.3907828e-01 
-1.4992831e-01 2.0502297e-02 -3.5421528e-01 
-6.4096788e-02 6.3167626e-03 -3.6083746e-01 
-1.4509857e-01 6.0351225e-03 -3.1682666e-01 
3.7378076e-03 6.2516447e-03 -3.8524386e-01 
-1.4995559e-01 1.8998962e-02 -3.5633398e-01 
1.7359620e-01 5.5779375e-03 -4.1656493e-01 
-1.5013924e-01 1.7492834e-02 -3.5823435e-01 
1.4890381e-01 5.6950204e-03 -4.1518633e-01 
1.2451196e-01 5.8111274e-03 -4.1401961e-01 
1.7428987e-01 1.1492116e-03 -4.4198447e-01 
-1.4816272e-01 9.5465053e-03 -3.3983523e-01 
-1.5048085e-01 1.5983851e-02 -3.5991348e-01 
1.0021777e-01 5.9270650e-03 -4.1306471e-01 
-1.9588826e-02 6.3553665e-03 -3.8534945e-01 
1.7426057e-01 -8.8278630e-03 -4.5896446e-01 
1.7449786e-01 -7.4064629e-03 -4.6108117e-01 
1.7489931e-01 -5.9827642e-03 -4.6299093e-01 
-1.2800500e-01 6.3157515e-03 -3.3919472e-01 
7.6017586e-02 6.0440993e-03 -4.1232165e-01 
-1.5098114e-01 1.4472020e-02 -3.6136847e-01 
-8.6816178e-02 6.4262930e-03 -3.6159844e-01 
1.7563402e-01 2.6071731e-03 -4.4264544e-01 
1.7545766e-01 -4.5567595e-03 -4.6469368e-01 
-1.4931235e-01 8.0040657e-03 -3.4035297e-01 
5.1886192e-02 6.1638746e-03 -4.1179046e-01 
1.7617423e-01 -3.1284402e-03 -4.6618943e-01 
-1.5164087e-01 1.2957413e-02 -3.6259648e-01 
-4.2938771e-02 6.4703763e-03 -3.8567021e-01 
2.7800733e-02 6.2883133e-03 -4.1147122e-01 
1.7715621e-01 4.0676662e-03 -4.4309757e-01 
1.7704943e-01 -1.6977902e-03 -4.6747836e-01 
-1.0963032e-01 6.5550866e-03 -3.6257793e-01 
-1.5246100e-01 1.1440170e-02 -3.6359489e-01 
-1.5046321e-01 6.4596007e-03 -3.4062982e-01 
-1.5520062e-01 2.2206480e-02 -3.7717315e-01 
-1.5507316e-01 2.0725593e-02 -3.7949397e-01 
-1.5510929e-01 1.9242145e-02 -3.8160193e-01 
-6.6335190e-02 6.5990138e-03 -3.8620627e-01 
1.7808371e-01 -2.6478543e-04 -4.6856080e-01 
3.7381085e-03 6.4195019e-03 -4.1136399e-01 
-1.5530192e-01 1.7756030e-02 -3.8349434e-01 
1.7867919e-01 5.5306810e-03 -4.4334214e-01 
-1.5344010e-01 9.9204739e-03 -3.6436139e-01 
1.5326056e-01 5.6725736e-03 -4.4198263e-01 
-1.5565256e-01 1.6267196e-02 -3.8516855e-01 
1.2814254e-01 5.8157901e-03 -4.4083213e-01 
1.7927779e-01 1.1706037e-03 -4.6943731e-01 
-2.0324763e-02 6.5595661e-03 -4.1146887e-01 
1.0312221e-01 5.9609536e-03 -4.3989063e-01 
-1.3254287e-01 6.7043710e-03 -3.6377591e-01 
-1.5616186e-01 1.4775643e-02 -3.8662199e-01 
-8.9801004e-02 6.7432357e-03 -3.8695769e-01 
7.8195905e-02 6.1090686e-03 -4.3915814e-01 
1.7912380e-01 -8.6587316e-03 -4.8717192e-01 
1.7936888e-01 -7.2571923e-03 -4.8927270e-01 
-1.5459805e-01 8.3985484e-03 -3.6489417e-01 
1.7977814e-01 -5.8534121e-03 -4.9116936e-01 
1.8063009e-01 2.6084063e-03 -4.7010870e-01 
-1.5683049e-01 1.3281422e-02 -3.8785225e-01 
5.3338400e-02 6.2614475e-03 -4.3863469e-01 
1.8034431e-01 -4.4473705e-03 -4.9286214e-01 
-4.4410975e-02 6.7105396e-03 -4.1178596e-01 
1.8106871e-01 -3.0390513e-03 -4.9435137e-01 
-1.1336147e-01 6.9044738e-03 -3.8792450e-01 
2.8526826e-02 6.4196231e-03 -4.3832032e-01 
-1.5575701e-01 6.8745103e-03 -3.6519215e-01 
-1.5765934e-01 1.1784636e-02 -3.8885713e-01 
1.8216044e-01 4.0486454e-03 -4.7057609e-01 
-1.6026871e-01 2.2401574e-02 -4.0318978e-01 
1.8195176e-01 -1.6284374e-03 -4.9563753e-01 
-1.6014962e-01 2.0940494e-02 -4.0549893e-01 
-1.6019430e-01 1.9476945e-02 -4.0759781e-01 
-6.8543656e-02 6.8742319e-03 -4.1231532e-01 
3.7380726e-03 6.5852494e-03 -4.3821509e-01 
-1.6039558e-01 1.8010837e-02 -4.0948396e-01 
1.8299391e-01 -2.1551004e-04 -4.9672122e-01 
-1.5864693e-01 1.0285422e-02 -3.8963480e-01 
1.8369153e-01 5.4912971e-03 -4.7084092e-01 
-1.6075493e-01 1.6542124e-02 -4.1115500e-01 
1.5755678e-01 5.6570520e-03 -4.6950047e-01 
1.3172267e-01 5.8262126e-03 -4.6836616e-01 
-1.3702016e-01 7.0835018e-03 -3.8910666e-01 
-2.1050938e-02 6.7599924e-03 -4.3831904e-01 
1.8419588e-01 1.1997497e-03 -4.9760325e-01 
1.0598624e-01 5.9992474e-03 -4.6743798e-01 
-1.6127291e-01 1.5070800e-02 -4.1260867e-01 
-9.2745681e-02 7.0520985e-03 -4.1305700e-01 
-1.5981309e-01 8.7839490e-03 -3.9018397e-01 
8.0343861e-02 6.1769381e-03 -4.6671596e-01 
1.8391865e-01 -8.4819479e-03 -5.1608391e-01 
-1.6195015e-01 1.3596903e-02 -4.1384288e-01 
1.8417128e-01 -7.1002750e-03 -5.1816868e-01 
1.8555608e-01 2.6173558e-03 -4.9828465e-01 
1.8458813e-01 -5.7164201e-03 -5.2005215e-01 
-4.5863287e-02 6.9454169e-03 -4.3863225e-01 
5.4770285e-02 6.3603138e-03 -4.6620012e-01 
1.8516191e-01 -4.3303526e-03 -5.2173486e-01 
-1.6098010e-01 7.2803086e-03 -3.9050401e-01 
-1.1704225e-01 7.2451145e-03 -4.1401099e-01 
-1.6278747e-01 1.2120506e-02 -4.1485585e-01 
2.9242646e-02 6.5505732e-03 -4.6589047e-01 
1.8589396e-01 -2.9420510e-03 -5.2321743e-01 
-1.6526861e-01 2.2588497e-02 -4.2992276e-01 
1.8709433e-01 4.0373135e-03 -4.9876672e-01 
-1.6515764e-01 2.1147244e-02 -4.3222175e-01 
-1.6521058e-01 1.9703604e-02 -4.3431312e-01 
-7.0722077e-02 7.1428712e-03 -4.3915473e-01 
1.8678466e-01 -1.5514972e-03 -5.2450061e-01 
-1.6378335e-01 1.0641712e-02 -4.1564614e-01 
-1.6542021e-01 1.8257499e-02 -4.3619461e-01 
3.7378324e-03 6.7489977e-03 -4.6578707e-01 
-1.6578797e-01 1.6808888e-02 -4.3786410e-01 
1.8783448e-01 -1.5867577e-04 -5.2558526e-01 
-1.4143691e-01 7.4536560e-03 -4.1517725e-01 
1.8863325e-01 5.4595897e-03 -4.9905101e-01 
1.6179250e-01 5.6482118e-03 -4.9772962e-01 
1.3525237e-01 5.8421381e-03 -4.9661146e-01 
-2.1767229e-02 6.9568567e-03 -4.6588993e-01 
-9.5650153e-02 7.3533725e-03 -4.3988651e-01 
-1.6631435e-01 1.5357761e-02 -4.3931959e-01 
-1.6495759e-01 9.1606483e-03 -4.1621283e-01 
1.0880992e-01 6.0417088e-03 -4.9569655e-01 
1.8904413e-01 1.2364243e-03 -5.2647240e-01 
-1.6699993e-01 1.3904142e-02 -4.4055932e-01 
8.2461517e-02 6.2475179e-03 -4.9498492e-01 
-4.7295605e-02 7.1753086e-03 -4.6619909e-01 
1.8864508e-01 -8.2977525e-03 -5.4569176e-01 
5.6181926e-02 6.4603533e-03 -4.9447658e-01 
-1.6613256e-01 7.6773881e-03 -4.1655567e-01 
1.9041199e-01 2.6338067e-03 -5.2716328e-01 
1.8890503e-01 -6.9359537e-03 -5.4776025e-01 
-1.2067268e-01 7.5774969e-03 -4.4082758e-01 
1.8932927e-01 -5.5720319e-03 -5.4963026e-01 
-1.6784549e-01 1.2448085e-02 -4.4158180e-01 
1.8991046e-01 -4.2059490e-03 -5.5130262e-01 
2.9948282e-02 6.6811283e-03 -4.9417156e-01 
-1.7020023e-01 2.2767486e-02 -4.5736367e-01 
-1.7009715e-01 2.1346076e-02 -4.5965392e-01 
1.9064995e-01 -2.8376796e-03 -5.5277821e-01 
-7.2870384e-02 7.4053003e-03 -4.6671456e-01 
-1.7015810e-01 1.9922355e-02 -4.6173921e-01 
1.9195789e-01 4.0334641e-03 -5.2765932e-01 
-1.6884947e-01 1.0989666e-02 -4.4238594e-01 
-1.7037581e-01 1.8496253e-02 -4.6361753e-01 
3.7374790e-03 6.9108042e-03 -4.9406986e-01 
1.9154811e-01 -1.4672045e-03 -5.5405804e-01 
-1.7075170e-01 1.7067732e-02 -4.6528694e-01 
-1.4579318e-01 7.8152745e-03 -4.4197790e-01 
1.9260539e-01 -9.4510822e-05 -5.5514318e-01 
1.9350437e-01 5.4353573e-03 -5.2796222e-01 
-1.7003166e-01 9.5289813e-03 -4.4297112e-01 
-1.7128621e-01 1.5636777e-02 -4.6674572e-01 
-9.8514384e-02 7.6474673e-03 -4.6743635e-01 
1.6596772e-01 5.6458079e-03 -5.2665986e-01 
-2.2473550e-02 7.1503084e-03 -4.9417151e-01 
1.3873167e-01 5.8633077e-03 -5.2555783e-01 
1.1159328e-01 6.0880940e-03 -5.2465616e-01 
-1.7197988e-01 1.4203404e-02 -4.6799234e-01 
1.9382250e-01 1.2804074e-03 -5.5603490e-01 
8.4548920e-02 6.3206043e-03 -5.2395486e-01 
-1.7121447e-01 8.0660913e-03 -4.4333737e-01 
-4.8707862e-02 7.4004471e-03 -4.9447651e-01 
-1.2425275e-01 7.9020377e-03 -4.6836442e-01 
-1.7283347e-01 1.2767651e-02 -4.6902559e-01 
5.7573379e-02 6.5614235e-03 -5.2345396e-01 
1.9519781e-01 2.6575464e-03 -5.5673458e-01 
1.9330308e-01 -8.1063759e-03 -5.7598672e-01 
1.9357013e-01 -6.7644604e-03 -5.7803849e-01 
1.9400153e-01 -5.4204800e-03 -5.7989461e-01 
-1.7506353e-01 2.2938766e-02 -4.8550393e-01 
-1.7496810e-01 2.1537214e-02 -4.8778672e-01 
3.0643796e-02 6.8112213e-03 -5.2315346e-01 
1.9458994e-01 -4.0743916e-03 -5.8155616e-01 
-7.4988529e-02 7.6618186e-03 -4.9498487e-01 
-1.7503681e-01 2.0133422e-02 -4.8986729e-01 
-1.7384537e-01 1.1329575e-02 -4.6984464e-01 
-1.7526237e-01 1.8727324e-02 -4.9174378e-01 
1.9533667e-01 -2.7261665e-03 -5.8302429e-01 
1.9675111e-01 4.0368909e-03 -5.5724381e-01 
-1.5008899e-01 8.1687407e-03 -4.6949875e-01 
3.7370732e-03 7.0706851e-03 -5.2305338e-01 
-1.7564613e-01 1.7318883e-02 -4.9341448e-01 
1.9624209e-01 -1.3757848e-03 -5.8430022e-01 
-1.7503536e-01 9.8892478e-03 -4.7044913e-01 
-1.7618854e-01 1.5908085e-02 -4.9487785e-01 
-1.0133835e-01 7.9347262e-03 -4.9569658e-01 
1.9830493e-01 5.4183979e-03 -5.5756437e-01 
-2.3169849e-02 7.3404473e-03 -5.2315373e-01 
1.9730664e-01 -2.3235187e-05 -5.8538527e-01 
1.7008249e-01 5.6495963e-03 -5.5628103e-01 
1.4216060e-01 5.8894633e-03 -5.5519511e-01 
-1.7689007e-01 1.4494935e-02 -4.9613260e-01 
1.1433634e-01 6.1381562e-03 -5.5430664e-01 
-1.7622588e-01 8.4467226e-03 -4.7083926e-01 
1.9853100e-01 1.3314849e-03 -5.8628087e-01 
8.6606105e-02 6.3959851e-03 -5.5361564e-01 
-5.0100015e-02 7.6210100e-03 -5.2345450e-01 
-1.2778247e-01 8.2190947e-03 -4.9661161e-01 
-1.7775147e-01 1.3079460e-02 -4.9717773e-01 
5.8944682e-02 6.6633649e-03 -5.5312212e-01 
1.9991355e-01 2.6883671e-03 -5.8698858e-01 
1.9789259e-01 -7.9080377e-03 -6.0696000e-01 
-1.7985844e-01 2.3102553e-02 -5.1433476e-01 
1.9816654e-01 -6.5860156e-03 -6.0899445e-01 
-1.7977044e-01 2.1720874e-02 -5.1661130e-01 
3.1329228e-02 6.9407596e-03 -5.5282610e-01 
-1.7877110e-01 1.1661704e-02 -4.9801261e-01 
1.9860490e-01 -5.2619854e-03 -6.1083608e-01 
-1.7984669e-01 2.0337019e-02 -5.1868838e-01 
-7.7076487e-02 7.9126687e-03 -5.2395568e-01 
1.9920032e-01 -3.9359005e-03 -6.1248620e-01 
-1.8007986e-01 1.8950927e-02 -5.2056429e-01 
-1.5432436e-01 8.5143919e-03 -4.9772992e-01 
2.0147404e-01 4.0473909e-03 -5.8751011e-01 
1.9995410e-01 -2.6077301e-03 -6.1394622e-01 
3.7366539e-03 7.2286225e-03 -5.5272758e-01 
-1.8047128e-01 1.7562564e-02 -5.2223750e-01 
-1.7996873e-01 1.0241720e-02 -4.9863707e-01 
2.0086659e-01 -1.2774535e-03 -6.1521758e-01 
-1.8102134e-01 1.6171910e-02 -5.2370665e-01 
-1.0412206e-01 8.2154374e-03 -5.2465726e-01 
-2.3856090e-02 7.5273329e-03 -5.5282657e-01 
2.0303496e-01 5.4085112e-03 -5.8784733e-01 
1.7413682e-01 5.6593364e-03 -5.8658301e-01 
2.0193821e-01 5.4939932e-05 -6.1630179e-01 
1.4553919e-01 5.9203490e-03 -5.8551318e-01 
-1.8173053e-01 1.4778967e-02 -5.2497063e-01 
-1.8116681e-01 8.8195570e-03 -4.9905145e-01 
1.1703914e-01 6.1916477e-03 -5.8463788e-01 
8.8633095e-02 6.4734415e-03 -5.8395714e-01 
-1.3126184e-01 8.5289766e-03 -5.2555921e-01 
-5.1472040e-02 7.8371296e-03 -5.5312304e-01 
2.0316963e-01 1.3894505e-03 -6.1720047e-01 
-1.8259953e-01 1.3383752e-02 -5.2602861e-01 
6.0295862e-02 6.7660052e-03 -5.8347097e-01 
-1.8458491e-01 2.3259057e-02 -5.4384723e-01 
2.0455921e-01 2.7260669e-03 -6.1791532e-01 
-1.8450414e-01 2.1897263e-02 -5.4611863e-01 
-1.8362671e-01 1.1986298e-02 -5.2688012e-01 
-7.9134246e-02 8.1580456e-03 -5.5361700e-01 
-1.8458771e-01 2.0533353e-02 -5.4819334e-01 
3.2004604e-02 7.0696304e-03 -5.8317939e-01 
2.0241359e-01 -7.7029468e-03 -6.3860275e-01 
2.0269423e-01 -6.4008288e-03 -6.4061913e-01 
-1.8482827e-01 1.9167272e-02 -5.5006982e-01 
2.0313936e-01 -5.0967579e-03 -6.4244550e-01 
-1.5849934e-01 8.8525264e-03 -5.2666148e-01 
2.0374160e-01 -3.7906851e-03 -6.4408344e-01 
-1.8522712e-01 1.7798984e-02 -5.5174668e-01 
2.0612668e-01 4.0647657e-03 -6.1844818e-01 
3.7362446e-03 7.3845716e-03 -5.8308239e-01 
-1.8483181e-01 1.0586649e-02 -5.2752512e-01 
2.0450224e-01 -2.4825782e-03 -6.4553455e-01 
-1.8578464e-01 1.6428467e-02 -5.5322268e-01 
-1.0686549e-01 8.4898430e-03 -5.5430841e-01 
2.0542160e-01 -1.1724158e-03 -6.4680050e-01 
-2.4532256e-02 7.7109908e-03 -5.8317997e-01 
2.0769450e-01 5.4055007e-03 -6.1880099e-01 
-1.8650127e-01 1.5055719e-02 -5.5449687e-01 
-1.8603730e-01 9.1848461e-03 -5.2796404e-01 
1.7813075e-01 5.6747925e-03 -6.1755567e-01 
1.4886745e-01 5.9557123e-03 -6.1650192e-01 
2.0650010e-01 1.3981240e-04 -6.4788301e-01 
1.1970169e-01 6.2483208e-03 -6.1563978e-01 
-1.3469089e-01 8.8319512e-03 -5.5519725e-01 
-1.8737769e-01 1.3680752e-02 -5.5556855e-01 
-5.2823925e-02 8.0489000e-03 -5.8347212e-01 
9.0629913e-02 6.5527498e-03 -6.1496928e-01 
2.0773839e-01 1.4541054e-03 -6.4878384e-01 
6.1626936e-02 6.8691612e-03 -6.1449044e-01 
-1.8841224e-01 1.2303589e-02 -5.5643737e-01 
-1.8924289e-01 2.3408477e-02 -5.7403221e-01 
-1.8916915e-01 2.2066580e-02 -5.7629948e-01 
-1.8925985e-01 2.0722625e-02 -5.7837289e-01 
-8.1161804e-02 8.3981042e-03 -5.8395882e-01 
2.0913480e-01 2.7704505e-03 -6.4950485e-01 
3.2669940e-02 7.1977034e-03 -6.1420326e-01 
-1.6261393e-01 9.1834108e-03 -5.5628348e-01 
-1.8950759e-01 1.9376559e-02 -5.8025100e-01 
2.0686603e-01 -7.4913015e-03 -6.7090611e-01 
2.0715316e-01 -6.2090987e-03 -6.7290351e-01 
2.0760488e-01 -4.9249962e-03 -6.7471372e-01 
-1.8991367e-01 1.8028345e-02 -5.8193252e-01 
-1.8962464e-01 1.0924266e-02 -5.5710338e-01 
3.7358581e-03 7.5384633e-03 -6.1410775e-01 
2.0821375e-01 -3.6389438e-03 -6.7633854e-01 
2.1070906e-01 4.0888226e-03 -6.5004799e-01 
-1.0956867e-01 8.7581452e-03 -5.8464004e-01 
-1.9047844e-01 1.6677961e-02 -5.8341636e-01 
2.0898106e-01 -2.3509080e-03 -6.7777982e-01 
-1.9083737e-01 9.5428230e-03 -5.5756707e-01 
-2.5198339e-02 7.8914173e-03 -6.1420390e-01 
2.0990711e-01 -1.0608670e-03 -6.7903941e-01 
-1.9120232e-01 1.5325401e-02 -5.8470164e-01 
2.1228358e-01 5.4091754e-03 -6.5041527e-01 
1.8206430e-01 5.6957340e-03 -6.4918892e-01 
1.5214541e-01 5.9953043e-03 -6.4815124e-01 
2.1099231e-01 2.3118925e-04 -6.8011920e-01 
-1.3806963e-01 9.1282501e-03 -5.8551576e-01 
1.2232401e-01 6.3079282e-03 -6.4730225e-01 
-1.9208596e-01 1.3970671e-02 -5.8578778e-01 
-5.4155669e-02 8.2563818e-03 -6.1449170e-01 
9.2596572e-02 6.6336822e-03 -6.4664198e-01 
2.1223729e-01 1.5252595e-03 -6.8102115e-01 
-1.9312770e-01 1.2613792e-02 -5.8667451e-01 
6.2937918e-02 6.9726400e-03 -6.4617045e-01 
-1.9383234e-01 2.3551006e-02 -6.0488040e-01 
-1.9376544e-01 2.2229017e-02 -6.0714451e-01 
-1.9386307e-01 2.0905026e-02 -6.0921759e-01 
-8.3159166e-02 8.6329634e-03 -6.1497112e-01 
-1.6666817e-01 9.5072833e-03 -5.8658594e-01 
2.1364035e-01 2.8213301e-03 -6.8174724e-01 
-1.9411780e-01 1.9578979e-02 -6.1109830e-01 
3.3325246e-02 7.3248329e-03 -6.4588766e-01 
-1.9434725e-01 1.1254789e-02 -5.8736193e-01 
-1.9453092e-01 1.8250841e-02 -6.1278544e-01 
2.1124987e-01 -7.2732900e-03 -7.0386118e-01 
2.1154332e-01 -6.0110137e-03 -7.0583855e-01 
2.1200143e-01 -4.7468888e-03 -7.0763154e-01 
3.7354996e-03 7.6902075e-03 -6.4579362e-01 
-1.1223160e-01 9.0205114e-03 -6.1564214e-01 
2.1522121e-01 4.1193758e-03 -6.8229951e-01 
-1.9510275e-01 1.6920588e-02 -6.1427800e-01 
2.1261676e-01 -3.4808645e-03 -7.0924220e-01 
-1.9556705e-01 9.8937054e-03 -5.8785055e-01 
2.1339056e-01 -2.2129066e-03 -7.1067256e-01 
-1.9583369e-01 1.5588211e-02 -6.1557518e-01 
-2.5854338e-02 8.0685825e-03 -6.4588832e-01 
2.1432313e-01 -9.4299305e-04 -7.1192469e-01 
2.1680226e-01 5.4193504e-03 -6.8268007e-01 
1.8593751e-01 5.7219359e-03 -6.8147271e-01 
-1.4139808e-01 9.4180739e-03 -6.1650474e-01 
1.5537309e-01 6.0388794e-03 -6.8045108e-01 
-1.9672438e-01 1.4253713e-02 -6.1667647e-01 
1.2490613e-01 6.3702225e-03 -6.7961523e-01 
2.1541485e-01 3.2888656e-04 -7.1300066e-01 
-5.5467276e-02 8.4596056e-03 -6.4617175e-01 
9.4533085e-02 6.7160066e-03 -6.7896517e-01 
-1.9777313e-01 1.2917109e-02 -6.1758164e-01 
2.1666633e-01 1.6027307e-03 -7.1390258e-01 
-1.9835321e-01 2.3686827e-02 -6.3638231e-01 
6.4228816e-02 7.0762393e-03 -6.7850094e-01 
-1.9829297e-01 2.2384758e-02 -6.3864416e-01 
-8.5126341e-02 8.8627107e-03 -6.4664388e-01 
-1.9839734e-01 2.1080739e-02 -6.4071784e-01 
-1.7066207e-01 9.8243582e-03 -6.1755887e-01 
-1.9865889e-01 1.9774718e-02 -6.4260207e-01 
3.3970525e-02 7.4508583e-03 -6.7822253e-01 
2.1807587e-01 2.8785258e-03 -7.1463256e-01 
-1.9899965e-01 1.1578424e-02 -6.1829082e-01 
-1.9907886e-01 1.8466658e-02 -6.4429572e-01 
2.1556506e-01 -7.0490908e-03 -7.3745905e-01 
3.7351700e-03 7.8396941e-03 -6.7812995e-01 
2.1586465e-01 -5.8067522e-03 -7.3941521e-01 
-1.9965756e-01 1.7156535e-02 -6.4579783e-01 
-1.1485430e-01 9.2770775e-03 -6.4730470e-01 
2.1632899e-01 -4.5626141e-03 -7.4118979e-01 
2.1966316e-01 4.1562467e-03 -7.1519276e-01 
-2.0022636e-01 1.0237698e-02 -6.1880451e-01 
2.1695060e-01 -3.3166253e-03 -7.4278507e-01 
-2.0039539e-01 1.5844338e-02 -6.4710766e-01 
-2.6500256e-02 8.2424320e-03 -6.7822319e-01 
2.1773073e-01 -2.0687515e-03 -7.4420331e-01 
2.2125056e-01 5.4358479e-03 -7.1558534e-01 
2.1866964e-01 -8.1897009e-04 -7.4544676e-01 
-1.4467624e-01 9.7015947e-03 -6.4815417e-01 
1.8975040e-01 5.7531786e-03 -7.1439695e-01 
-2.0129295e-01 1.4530067e-02 -6.4822472e-01 
1.5855053e-01 6.0861953e-03 -7.1339137e-01 
-5.6758754e-02 8.6585743e-03 -6.7850225e-01 
1.2744805e-01 6.4349560e-03 -7.1256864e-01 
2.1976771e-01 4.3272933e-04 -7.4651767e-01 
-2.0234855e-01 1.3213736e-02 -6.4914881e-01 
9.6439465e-02 6.7994860e-03 -7.1192880e-01 
-2.0280546e-01 2.3816118e-02 -6.6852832e-01 
-2.0275170e-01 2.2533980e-02 -6.7078875e-01 
2.2102553e-01 1.6863455e-03 -7.4741830e-01 
-1.7459566e-01 1.0134828e-02 -6.4919225e-01 
6.5499636e-02 7.1797470e-03 -7.1147186e-01 
-2.0286264e-01 2.1249943e-02 -6.7286390e-01 
-8.7063343e-02 9.0874039e-03 -6.7896709e-01 
-2.0313082e-01 1.9963953e-02 -6.7475254e-01 
-2.0358187e-01 1.1895364e-02 -6.4988005e-01 
3.4605780e-02 7.5756043e-03 -7.1119782e-01 
-2.0355747e-01 1.8675975e-02 -6.7645354e-01 
2.2244138e-01 2.9418652e-03 -7.4815091e-01 
-2.0414288e-01 1.7385982e-02 -6.7796599e-01 
-1.1743678e-01 9.5279502e-03 -6.7961769e-01 
3.7348670e-03 7.9867938e-03 -7.1110670e-01 
-2.0481533e-01 1.0574993e-02 -6.5041893e-01 
2.1981157e-01 -6.8188727e-03 -7.7169083e-01 
2.2011714e-01 -5.5964831e-03 -7.7362444e-01 
2.2403493e-01 4.1992640e-03 -7.4871773e-01 
2.2058753e-01 -4.3723408e-03 -7.7537928e-01 
-2.0488742e-01 1.6093963e-02 -6.7928916e-01 
2.2121526e-01 -3.1463948e-03 -7.7695785e-01 
-2.7136101e-02 8.4128881e-03 -7.1119848e-01 
2.2200155e-01 -1.9186106e-03 -7.7836262e-01 
-1.4790416e-01 9.9789588e-03 -6.8045404e-01 
-2.0579169e-01 1.4799917e-02 -6.8042257e-01 
2.2562851e-01 5.4584972e-03 -7.4912104e-01 
1.9350301e-01 5.7892480e-03 -7.4795160e-01 
2.2294665e-01 -6.8896548e-04 -7.7959604e-01 
1.6167773e-01 6.1370118e-03 -7.4696206e-01 
-5.8030114e-02 8.8532645e-03 -7.1147315e-01 
1.2994980e-01 6.5018795e-03 -7.4615246e-01 
-2.0685397e-01 1.3503853e-02 -6.8136603e-01 
2.2405090e-01 5.4255125e-04 -7.8066053e-01 
9.8315721e-02 6.8838778e-03 -7.4552282e-01 
-2.0718904e-01 2.3939048e-02 -7.0130859e-01 
-1.7846896e-01 1.0438865e-02 -6.8147608e-01 
-2.0714161e-01 2.2676853e-02 -7.0356845e-01 
-2.0725895e-01 2.1412806e-02 -7.0564593e-01 
-8.8970185e-02 9.3070734e-03 -7.1193070e-01 
6.6750383e-02 7.2829409e-03 -7.4507316e-01 
2.2531490e-01 1.7759387e-03 -7.8155851e-01 
-2.0809393e-01 1.2205792e-02 -6.8211963e-01 
-2.0753359e-01 2.0146854e-02 -7.0753981e-01 
3.5231012e-02 7.6988809e-03 -7.4480349e-01 
-2.0796675e-01 1.8878961e-02 -7.0924898e-01 
2.2673690e-01 3.0111842e-03 -7.8229237e-01 
-2.0855870e-01 1.7609100e-02 -7.1077252e-01 
-1.1997907e-01 9.7732097e-03 -7.1257110e-01 
-2.0933397e-01 1.0905774e-02 -6.8268380e-01 
3.7345867e-03 8.1313577e-03 -7.4471382e-01 
2.2398934e-01 -6.5827960e-03 -8.0654762e-01 
-2.0930979e-01 1.6337259e-02 -7.1210970e-01 
2.2430073e-01 -5.3803665e-03 -8.0845721e-01 
2.2833655e-01 4.2482642e-03 -7.8286446e-01 
2.2477703e-01 -4.1762289e-03 -8.1019085e-01 
-2.7761879e-02 8.5798502e-03 -7.4480414e-01 
2.2541072e-01 -2.9703325e-03 -8.1175123e-01 
-1.5108184e-01 1.0250289e-02 -7.1339432e-01 
-2.1022060e-01 1.5063435e-02 -7.1326003e-01 
2.2620301e-01 -1.7626431e-03 -8.1314106e-01 
2.2993616e-01 5.4871350e-03 -7.8327710e-01 
1.9719536e-01 5.8299346e-03 -7.8212661e-01 
2.2715414e-01 -5.5313780e-04 -8.1436296e-01 
-5.9281368e-02 9.0436275e-03 -7.4507444e-01 
1.6475471e-01 6.1910902e-03 -7.8115311e-01 
-2.1128940e-01 1.3787637e-02 -7.1422328e-01 
1.3241138e-01 6.5707411e-03 -7.8035662e-01 
2.2826443e-01 6.5819442e-04 -8.1541956e-01 
1.0016186e-01 6.9689322e-03 -7.7973718e-01 
-1.8228199e-01 1.0736624e-02 -7.1440033e-01 
-2.1150391e-01 2.4055781e-02 -7.3471317e-01 
-2.1146264e-01 2.2813539e-02 -7.3697328e-01 
-2.1158623e-01 2.1569491e-02 -7.3905393e-01 
-9.0846884e-02 9.5217229e-03 -7.4552470e-01 
-2.1253585e-01 1.2509883e-02 -7.1499952e-01 
6.7981063e-02 7.3855871e-03 -7.7929481e-01 
2.2953445e-01 1.8713531e-03 -8.1631342e-01 
-2.1186718e-01 2.0323584e-02 -7.4095388e-01 
-2.1230669e-01 1.9075779e-02 -7.4267202e-01 
3.5846219e-02 7.8204818e-03 -7.7902951e-01 
2.3096244e-01 3.0863262e-03 -8.1704706e-01 
-2.1378231e-01 1.1230214e-02 -7.1558911e-01 
-2.1290502e-01 1.7826053e-02 -7.4420739e-01 
-1.2248117e-01 1.0012910e-02 -7.4615489e-01 
3.7343242e-03 8.2732172e-03 -7.7894129e-01 
-2.1366250e-01 1.6574389e-02 -7.4555924e-01 
2.3256804e-01 4.3030912e-03 -8.1762296e-01 
2.2809834e-01 -6.3410120e-03 -8.4202056e-01 
2.2841541e-01 -5.1585536e-03 -8.4390453e-01 
-2.8377601e-02 8.7431943e-03 -7.7903015e-01 
2.2889746e-01 -3.9744294e-03 -8.4561534e-01 
-1.5420932e-01 1.0515683e-02 -7.4696500e-01 
-2.1457969e-01 1.5320786e-02 -7.4672705e-01 
2.2953697e-01 -2.7885895e-03 -8.4715593e-01 
2.3033511e-01 -1.6009997e-03 -8.4852919e-01 
2.3417354e-01 5.5216057e-03 -8.1804350e-01 
2.0082747e-01 5.8750330e-03 -8.1691195e-01 
-6.0512528e-02 9.2295890e-03 -7.7929607e-01 
1.6778151e-01 6.2481920e-03 -8.1595447e-01 
-2.1565487e-01 1.4065251e-02 -7.4771053e-01 
2.3129211e-01 -4.1163732e-04 -8.4973798e-01 
1.3483281e-01 6.6412853e-03 -8.1517110e-01 
-1.8603478e-01 1.1028242e-02 -7.4795499e-01 
1.0197790e-01 7.0543913e-03 -8.1456186e-01 
-2.1575004e-01 2.4166470e-02 -7.6873195e-01 
2.3240829e-01 7.7950907e-04 -8.5078509e-01 
-2.1571478e-01 2.2944194e-02 -7.7099313e-01 
-2.1690765e-01 1.2807801e-02 -7.4850969e-01 
-2.1584446e-01 2.1720154e-02 -7.7307780e-01 
-9.2693455e-02 9.7313303e-03 -7.7973905e-01 
6.9191678e-02 7.4874392e-03 -8.1412677e-01 
-2.1613156e-01 2.0494297e-02 -7.7498466e-01 
2.3368418e-01 1.9724394e-03 -8.5167324e-01 
-2.1657727e-01 1.9266586e-02 -7.7671257e-01 
3.6451402e-02 7.9401840e-03 -8.1386584e-01 
-2.1816038e-01 1.1548478e-02 -7.4912483e-01 
-2.1718183e-01 1.8036996e-02 -7.7826052e-01 
-1.2494312e-01 1.0247081e-02 -7.8035905e-01 
2.3511803e-01 3.1671424e-03 -8.5240511e-01 
3.7340743e-03 8.4121832e-03 -8.1377908e-01 
-2.1794555e-01 1.6805511e-02 -7.7962771e-01 
2.3672944e-01 4.3635967e-03 -8.5298327e-01 
2.3213853e-01 -6.0936641e-03 -8.7810082e-01 
-2.8983274e-02 8.9027734e-03 -8.1386648e-01 
-1.5728660e-01 1.0775221e-02 -7.8115605e-01 
2.3246113e-01 -4.9311875e-03 -8.7995742e-01 
-2.1886899e-01 1.5572128e-02 -7.8081355e-01 
2.3294879e-01 -3.7670854e-03 -8.8164365e-01 
2.3359397e-01 -2.6013085e-03 -8.8316268e-01 
2.3439782e-01 -1.4338230e-03 -8.8451764e-01 
-2.1995038e-01 1.4336853e-02 -7.8181770e-01 
-6.1723608e-02 9.4110499e-03 -8.1412803e-01 
2.3834067e-01 5.5617608e-03 -8.5341021e-01 
2.0439938e-01 5.9243417e-03 -8.5229759e-01 
1.7075814e-01 6.3080781e-03 -8.5135613e-01 
2.3536056e-01 -2.6460627e-04 -8.8571157e-01 
-1.8972735e-01 1.1313839e-02 -7.8213002e-01 
1.3721412e-01 6.7132511e-03 -8.5058587e-01 
-2.1992738e-01 2.4271265e-02 -8.0335465e-01 
-2.1989798e-01 2.3068965e-02 -8.0561776e-01 
1.0376384e-01 7.1399874e-03 -8.4998682e-01 
-2.2120935e-01 1.3099704e-02 -7.8264010e-01 
-9.4509914e-02 9.9358477e-03 -8.1456372e-01 
-2.2003360e-01 2.1864941e-02 -8.0770731e-01 
2.3648249e-01 9.0635332e-04 -8.8674746e-01 
-2.2032671e-01 2.0659142e-02 -8.0962195e-01 
7.0382234e-02 7.5882362e-03 -8.4955901e-01 
-2.2077848e-01 1.9451530e-02 -8.1136044e-01 
2.3776412e-01 2.0790562e-03 -8.8762822e-01 
3.7046560e-02 8.0577463e-03 -8.4930245e-01 
-2.2246820e-01 1.1860722e-02 -7.8328093e-01 
-2.2138912e-01 1.8242079e-02 -8.1292173e-01 
-1.2736492e-01 1.0475727e-02 -8.1517353e-01 
2.3920367e-01 3.2534917e-03 -8.8835665e-01 
3.7338320e-03 8.5480446e-03 -8.4921715e-01 
-2.2215894e-01 1.7030774e-02 -8.1430494e-01 
-1.6031371e-01 1.1028959e-02 -8.1595744e-01 
-2.2308848e-01 1.5817609e-02 -8.1550941e-01 
-2.9578909e-02 9.0584159e-03 -8.4930310e-01 
2.4082075e-01 4.4296397e-03 -8.8893545e-01 
2.3610987e-01 -5.8408878e-03 -9.1477962e-01 
2.3643787e-01 -4.6984036e-03 -9.1660695e-01 
2.3693101e-01 -3.5543319e-03 -9.1826670e-01 
2.3758172e-01 -2.4086244e-03 -9.1976228e-01 
-2.2417595e-01 1.4602593e-02 -8.1653470e-01 
-6.2914619e-02 9.5878851e-03 -8.4956029e-01 
2.4243760e-01 5.6074596e-03 -8.8936719e-01 
2.0791110e-01 5.9776616e-03 -8.8827350e-01 
2.3839115e-01 -1.2612477e-03 -9.2109703e-01 
1.7368462e-01 6.3705075e-03 -8.8734806e-01 
-1.9335972e-01 1.1593521e-02 -8.1691540e-01 
1.3955530e-01 6.7863709e-03 -8.8659090e-01 
2.3935949e-01 -1.1217920e-04 -9.2227423e-01 
-2.2403588e-01 2.4370306e-02 -8.3857089e-01 
-2.2544097e-01 1.3385741e-02 -8.1738067e-01 
-2.2401221e-01 2.3187992e-02 -8.4083681e-01 
1.0551969e-01 7.2254411e-03 -8.8600205e-01 
-2.2415364e-01 2.2003994e-02 -8.4293214e-01 
-9.6296278e-02 1.0135202e-02 -8.4998870e-01 
2.4048703e-01 1.0385929e-03 -9.2329707e-01 
-2.2445263e-01 2.0818260e-02 -8.4485543e-01 
7.1552733e-02 7.6877015e-03 -8.8558152e-01 
-2.2491031e-01 1.9630752e-02 -8.4660538e-01 
-2.2670580e-01 1.2167094e-02 -8.1804740e-01 
2.4177426e-01 2.1910693e-03 -9.2416861e-01 
3.7631692e-02 8.1729075e-03 -8.8532933e-01 
-2.2552690e-01 1.8441443e-02 -8.4818081e-01 
-1.2974661e-01 1.0698828e-02 -8.5058833e-01 
3.7335923e-03 8.6805675e-03 -8.8524549e-01 
-2.2630269e-01 1.7250317e-02 -8.4958076e-01 
2.4321939e-01 3.3452403e-03 -9.2489183e-01 
-1.6329068e-01 1.1276931e-02 -8.5135915e-01 
-2.2723818e-01 1.6057371e-02 -8.5080447e-01 
-3.0164515e-02 9.2099250e-03 -8.8532998e-01 
2.4484202e-01 4.5010864e-03 -9.2546954e-01 
2.4001231e-01 -5.5828111e-03 -9.5204823e-01 
2.4034558e-01 -4.4603296e-03 -9.5384426e-01 
2.4084408e-01 -3.3362967e-03 -9.5547547e-01 
-2.2833160e-01 1.4862611e-02 -8.5185142e-01 
2.4150020e-01 -2.2106648e-03 -9.5694554e-01 
-6.4085576e-02 9.7599431e-03 -8.8558282e-01 
2.4646434e-01 5.6585683e-03 -9.2590443e-01 
-1.9693193e-01 1.1867378e-02 -8.5230111e-01 
2.1136267e-01 6.0347961e-03 -9.2482966e-01 
2.4231508e-01 -1.0834012e-03 -9.5825805e-01 
1.7656097e-01 6.4352360e-03 -9.2392023e-01 
1.4185638e-01 6.8603686e-03 -9.2317617e-01 
-2.2960253e-01 1.3666052e-02 -8.5272133e-01 
-2.2807551e-01 2.4463725e-02 -8.7437012e-01 
-2.2805743e-01 2.3301410e-02 -8.7663979e-01 
2.4328890e-01 4.5516739e-05 -9.5941650e-01 
-2.2820455e-01 2.2137447e-02 -8.7874185e-01 
-9.8052563e-02 1.0329292e-02 -8.8600397e-01 
1.0724547e-01 7.3104601e-03 -9.2259751e-01 
-2.2850927e-01 2.0971784e-02 -8.8067474e-01 
2.4442191e-01 1.1761007e-03 -9.6042430e-01 
7.2703180e-02 7.7855407e-03 -9.2218427e-01 
-2.2897275e-01 1.9804385e-02 -8.8243703e-01 
-2.3087320e-01 1.2467736e-02 -8.5341421e-01 
3.8206797e-02 8.2853849e-03 -9.2193645e-01 
2.4571462e-01 2.3083520e-03 -9.6128469e-01 
-2.2959516e-01 1.8635221e-02 -8.8402746e-01 
-1.3208819e-01 1.0916342e-02 -8.8659342e-01 
-2.3037677e-01 1.7464277e-02 -8.8544493e-01 
3.7333505e-03 8.8094934e-03 -9.2185407e-01 
2.4716521e-01 3.4422613e-03 -9.6200082e-01 
-1.6621752e-01 1.1519154e-02 -8.8735115e-01 
-2.3131810e-01 1.6291548e-02 -8.8668856e-01 
-3.0740099e-02 9.3570774e-03 -9.2193712e-01 
2.4879325e-01 4.5778102e-03 -9.6257562e-01 
-2.3241733e-01 1.5117041e-02 -8.8775772e-01 
2.4384582e-01 -5.3195547e-03 -9.8989800e-01 
2.4418425e-01 -4.2170860e-03 -9.9166052e-01 
2.4468798e-01 -3.1130999e-03 -9.9326099e-01 
-6.5236489e-02 9.9270453e-03 -9.2218560e-01 
-2.0044399e-01 1.2135483e-02 -8.8827713e-01 
2.4534939e-01 -2.0075499e-03 -9.9470333e-01 
2.5042094e-01 5.7149603e-03 -9.6301191e-01 
2.1475411e-01 6.0955494e-03 -9.6195605e-01 
1.7938720e-01 6.5020148e-03 -9.6106263e-01 
2.4616959e-01 -9.0040349e-04 -9.9599141e-01 
-2.3369405e-01 1.3940771e-02 -8.8865202e-01 
-2.3204622e-01 2.4551651e-02 -9.1074168e-01 
1.4411737e-01 6.9349584e-03 -9.6033167e-01 
-2.3203362e-01 2.3409345e-02 -9.1301610e-01 
-2.3218629e-01 2.2265426e-02 -9.1512590e-01 
-9.9778784e-02 1.0517994e-02 -9.2259950e-01 
2.4714876e-01 2.0836154e-04 -9.9712896e-01 
1.0894118e-01 7.3947367e-03 -9.5976320e-01 
-2.3249663e-01 2.1119842e-02 -9.1706939e-01 
-2.3497044e-01 1.2762780e-02 -8.8937134e-01 
2.4828714e-01 1.3187570e-03 -9.9811959e-01 
-2.3296577e-01 1.9972555e-02 -9.1884501e-01 
7.3833580e-02 7.8814399e-03 -9.5935724e-01 
-1.3438969e-01 1.1128200e-02 -9.2317878e-01 
-2.3359388e-01 1.8823540e-02 -9.2045134e-01 
3.8771875e-02 8.3948726e-03 -9.5911380e-01 
2.4958521e-01 2.4307844e-03 -9.9896677e-01 
-2.3438121e-01 1.7672779e-02 -9.2188716e-01 
3.7331023e-03 8.9345377e-03 -9.5903288e-01 
2.5104113e-01 3.5444351e-03 -9.9967379e-01 
-1.6909427e-01 1.1755622e-02 -9.2392344e-01 
-2.3532825e-01 1.6520267e-02 -9.2315145e-01 
-3.1305670e-02 9.4996218e-03 -9.5911450e-01 
2.5267448e-01 4.6596914e-03 -1.0002438e+00 
-2.3643317e-01 1.5366011e-02 -9.2424346e-01 
2.4761035e-01 -5.0512326e-03 -1.0283204e+00 
-6.6367371e-02 1.0088985e-02 -9.5935863e-01 
2.4795383e-01 -3.9687866e-03 -1.0300470e+00 
-2.0389593e-01 1.2397898e-02 -9.2483344e-01 
2.4846268e-01 -2.8848553e-03 -1.0316144e+00 
2.5430740e-01 5.7765159e-03 -1.0006796e+00 
2.4912927e-01 -1.7993930e-03 -1.0330266e+00 
2.1808544e-01 6.1597264e-03 -9.9964266e-01 
-2.3771555e-01 1.4210025e-02 -9.2516264e-01 
1.8216334e-01 6.5705891e-03 -9.9876524e-01 
-2.3594798e-01 2.4634203e-02 -9.4767475e-01 
2.4995469e-01 -7.1236789e-04 -1.0342879e+00 
-2.3594073e-01 2.3511916e-02 -9.4995500e-01 
1.4633828e-01 7.0098422e-03 -9.9804738e-01 
-2.3609884e-01 2.2388050e-02 -9.5207365e-01 
-1.0147496e-01 1.0701152e-02 -9.5976527e-01 
-2.3641469e-01 2.1262552e-02 -9.5402883e-01 
1.1060682e-01 7.4779462e-03 -9.9748910e-01 
2.5093909e-01 3.7624205e-04 -1.0354022e+00 
-2.3899754e-01 1.3052352e-02 -9.2590876e-01 
-2.3688938e-01 2.0135384e-02 -9.5581882e-01 
7.4943937e-02 7.9750632e-03 -9.9709042e-01 
2.5208272e-01 1.4664486e-03 -1.0363734e+00 
-2.3752306e-01 1.9006519e-02 -9.5744204e-01 
-1.3665113e-01 1.1334310e-02 -9.6033440e-01 
3.9326927e-02 8.5010391e-03 -9.9685136e-01 
2.5338603e-01 2.5582536e-03 -1.0372052e+00 
-2.3831599e-01 1.7875942e-02 -9.5889713e-01 
3.7328434e-03 9.0553874e-03 -9.9677192e-01 
2.5484718e-01 3.6516487e-03 -1.0379010e+00 
-1.7192093e-01 1.1986309e-02 -9.6106600e-01 
-2.3926862e-01 1.6743646e-02 -9.6018291e-01 
-3.1861237e-02 9.6372773e-03 -9.9685210e-01 
-2.4037912e-01 1.5609638e-02 -9.6129846e-01 
2.5648572e-01 4.7466171e-03 -1.0384641e+00 
-2.0728777e-01 1.2654665e-02 -9.6196003e-01 
-6.7478234e-02 1.0245524e-02 -9.9709189e-01 
2.5130588e-01 -4.7779518e-03 -1.0673069e+00 
2.5165431e-01 -3.7155382e-03 -1.0689951e+00 
-2.4166705e-01 1.4473933e-02 -9.6224311e-01 
2.5216817e-01 -2.6516695e-03 -1.0705268e+00 
2.5812377e-01 5.8431222e-03 -1.0388975e+00 
2.2135668e-01 6.2271312e-03 -1.0378795e+00 
2.5283982e-01 -1.5863008e-03 -1.0719064e+00 
1.8488941e-01 6.6406970e-03 -1.0370181e+00 
-2.3978073e-01 2.4711492e-02 -9.8515839e-01 
-2.3977873e-01 2.3609236e-02 -9.8744567e-01 
-2.3994218e-01 2.2505432e-02 -9.8957435e-01 
-1.0314110e-01 1.0878584e-02 -9.9749128e-01 
1.4851912e-01 7.0847087e-03 -1.0363133e+00 
2.5367035e-01 -5.1940094e-04 -1.0731383e+00 
-2.4026342e-01 2.1400026e-02 -9.9154240e-01 
-2.4295453e-01 1.3336571e-02 -9.6301648e-01 
1.1224242e-01 7.5597445e-03 -1.0357652e+00 
2.5465989e-01 5.4905180e-04 -1.0742269e+00 
-2.4074354e-01 2.0292982e-02 -9.9334791e-01 
7.6034254e-02 8.0660510e-03 -1.0353738e+00 
2.5580865e-01 1.6190692e-03 -1.0751762e+00 
-1.3887251e-01 1.1534552e-02 -9.9805026e-01 
-2.4138270e-01 1.9184271e-02 -9.9498912e-01 
3.9871952e-02 8.6035251e-03 -1.0351391e+00 
-2.4218111e-01 1.8073879e-02 -9.9646448e-01 
2.5711710e-01 2.6906531e-03 -1.0759902e+00 
3.7325699e-03 9.1716995e-03 -1.0350612e+00 
-1.7469753e-01 1.2211167e-02 -9.9876881e-01 
-2.4313924e-01 1.6961799e-02 -9.9777265e-01 
2.5858336e-01 3.7637957e-03 -1.0766725e+00 
-3.2406806e-02 9.7697315e-03 -1.0351399e+00 
-2.4425521e-01 1.5848036e-02 -9.9891254e-01 
2.6022699e-01 4.8384808e-03 -1.0772266e+00 
-2.1061954e-01 1.2905817e-02 -9.9964688e-01 
-6.8569088e-02 1.0396395e-02 -1.0353754e+00 
-2.4554858e-01 1.4732605e-02 -9.9988333e-01 
2.5493237e-01 -4.4998131e-03 -1.1068492e+00 
2.5528564e-01 -3.4574414e-03 -1.1084962e+00 
2.5580441e-01 -2.4136428e-03 -1.1099895e+00 
2.6187007e-01 5.9146726e-03 -1.0776557e+00 
2.2456785e-01 6.2975667e-03 -1.0766565e+00 
-2.4354445e-01 2.4783624e-02 -1.0231815e+00 
-2.4354760e-01 2.3701411e-02 -1.0254771e+00 
1.8756542e-01 6.7120674e-03 -1.0758111e+00 
2.5648103e-01 -1.3683735e-03 -1.1113337e+00 
-2.4371627e-01 2.2617677e-02 -1.0276171e+00 
-1.0477722e-01 1.1050078e-02 -1.0357675e+00 
1.5065992e-01 7.1592307e-03 -1.0751194e+00 
2.5731656e-01 -3.2160276e-04 -1.1125336e+00 
-2.4684143e-01 1.3615548e-02 -1.0006845e+00 
-2.4404280e-01 2.1532371e-02 -1.0295994e+00 
1.1384797e-01 7.6397663e-03 -1.0745815e+00 
-2.4452826e-01 2.0445455e-02 -1.0314216e+00 
2.5831113e-01 7.2669074e-04 -1.1135938e+00 
7.7104537e-02 8.1540171e-03 -1.0741974e+00 
-1.4105387e-01 1.1728782e-02 -1.0363164e+00 
-2.4517279e-01 1.9356902e-02 -1.0330820e+00 
2.5946493e-01 1.7765186e-03 -1.1145187e+00 
4.0406951e-02 8.7019413e-03 -1.0739671e+00 
-2.4597659e-01 1.8266696e-02 -1.0345788e+00 
2.6077842e-01 2.8278830e-03 -1.1153124e+00 
3.7322780e-03 9.2830983e-03 -1.0738906e+00 
-1.7742409e-01 1.2430128e-02 -1.0370219e+00 
-2.4694009e-01 1.7174830e-02 -1.0359104e+00 
2.6224970e-01 3.8807762e-03 -1.1159788e+00 
-3.2942386e-02 9.8966383e-03 -1.0739679e+00 
-2.4806144e-01 1.6081309e-02 -1.0370755e+00 
2.6389831e-01 4.9351827e-03 -1.1165215e+00 
-2.1389126e-01 1.3151366e-02 -1.0378840e+00 
-6.9639946e-02 1.0541297e-02 -1.0741991e+00 
-2.4936015e-01 1.4986149e-02 -1.0380732e+00 
2.5848978e-01 -4.2169109e-03 -1.1469390e+00 
2.5884780e-01 -3.1945903e-03 -1.1485420e+00 
2.6554633e-01 5.9910672e-03 -1.1169440e+00 
2.2771898e-01 6.3708333e-03 -1.1159637e+00 
-2.4723909e-01 2.4850699e-02 -1.0617330e+00 
2.5937139e-01 -2.1708693e-03 -1.1499938e+00 
-2.4724728e-01 2.3788538e-02 -1.0640383e+00 
1.9019138e-01 6.7844190e-03 -1.1151343e+00 
-2.4742108e-01 2.2724884e-02 -1.0661911e+00 
-1.0638333e-01 1.1215391e-02 -1.0745840e+00 
2.6005288e-01 -1.1457050e-03 -1.1512997e+00 
-2.5065828e-01 1.3889389e-02 -1.0389027e+00 
1.5276068e-01 7.2330632e-03 -1.1144557e+00 
-2.4775281e-01 2.1659685e-02 -1.0681889e+00 
2.6089333e-01 -1.1906720e-04 -1.1524647e+00 
1.1542348e-01 7.7176219e-03 -1.1139280e+00 
-2.4824352e-01 2.0592902e-02 -1.0700293e+00 
2.6189283e-01 9.0906508e-04 -1.1534937e+00 
7.8154789e-02 8.2385464e-03 -1.1135512e+00 
-2.4889332e-01 1.9524510e-02 -1.0717102e+00 
-1.4319522e-01 1.1916827e-02 -1.0751227e+00 
2.6305157e-01 1.9387033e-03 -1.1543913e+00 
4.0931923e-02 8.7958658e-03 -1.1133253e+00 
-2.4970240e-01 1.8454490e-02 -1.0732296e+00 
2.6437000e-01 2.9698495e-03 -1.1551620e+00 
3.7319638e-03 9.3891730e-03 -1.1132503e+00 
-1.8010063e-01 1.2643100e-02 -1.0758152e+00 
-2.5067120e-01 1.7382837e-02 -1.0745857e+00 
2.6584620e-01 4.0024964e-03 -1.1558099e+00 
-3.3467984e-02 1.0017616e-02 -1.1133262e+00 
-2.5179782e-01 1.6309556e-02 -1.0757771e+00 
-2.1710296e-01 1.3391313e-02 -1.0766613e+00 
2.6749970e-01 5.0366288e-03 -1.1563389e+00 
-7.0690817e-02 1.0679891e-02 -1.1135530e+00 
-2.5310178e-01 1.5234661e-02 -1.0768026e+00 
-2.5086460e-01 2.4912809e-02 -1.1008013e+00 
2.6197807e-01 -3.9293335e-03 -1.1875683e+00 
2.6234076e-01 -2.9270730e-03 -1.1891241e+00 
2.6915256e-01 6.0722121e-03 -1.1567525e+00 
-2.5087776e-01 2.3870711e-02 -1.1031179e+00 
2.3081009e-01 6.4467279e-03 -1.1557912e+00 
2.6286909e-01 -1.9234370e-03 -1.1905313e+00 
-2.5105660e-01 2.2827145e-02 -1.1052851e+00 
-1.0795946e-01 1.1374247e-02 -1.1139307e+00 
1.9276732e-01 6.8574578e-03 -1.1549777e+00 
-2.5440510e-01 1.4158192e-02 -1.0776612e+00 
2.6355536e-01 -9.1838317e-04 -1.1917957e+00 
-2.5139343e-01 2.1782059e-02 -1.1073001e+00 
1.5482141e-01 7.3058414e-03 -1.1543122e+00 
2.6440062e-01 8.8118002e-05 -1.1929226e+00 
-2.5188929e-01 2.0735416e-02 -1.1091602e+00 
1.1696898e-01 7.7928954e-03 -1.1537947e+00 
2.6540497e-01 1.0960871e-03 -1.1939173e+00 
-2.5254428e-01 1.9687186e-02 -1.1108631e+00 
-1.4529657e-01 1.2098484e-02 -1.1144593e+00 
7.9185014e-02 8.3191921e-03 -1.1534252e+00 
2.6656857e-01 2.1055354e-03 -1.1947847e+00 
-2.5335857e-01 1.8637355e-02 -1.1124064e+00 
4.1446869e-02 8.8848407e-03 -1.1532036e+00 
-1.8272718e-01 1.2849968e-02 -1.1151387e+00 
2.6789184e-01 3.1164650e-03 -1.1955296e+00 
-2.5433257e-01 1.7585914e-02 -1.1137884e+00 
3.7316235e-03 9.4894749e-03 -1.1531301e+00 
2.6937288e-01 4.1288687e-03 -1.1961563e+00 
-2.5546438e-01 1.6532869e-02 -1.1150072e+00 
-3.3983608e-02 1.0132243e-02 -1.1532046e+00 
-2.2025466e-01 1.3625642e-02 -1.1159689e+00 
2.7103119e-01 5.1427314e-03 -1.1966690e+00 
-2.5677350e-01 1.5478234e-02 -1.1160614e+00 
-7.1721714e-02 1.0811805e-02 -1.1534271e+00 
-2.5442096e-01 2.4970037e-02 -1.1403751e+00 
-2.5443899e-01 2.3948014e-02 -1.1427048e+00 
-2.5808191e-01 1.4422047e-02 -1.1169500e+00 
2.7268879e-01 6.1580196e-03 -1.1970713e+00 
-2.5462280e-01 2.2924546e-02 -1.1448880e+00 
2.6539722e-01 -3.6371631e-03 -1.2287292e+00 
-1.0950561e-01 1.1526335e-02 -1.1537976e+00 
2.3384119e-01 6.5250427e-03 -1.1961288e+00 
2.6576449e-01 -2.6549717e-03 -1.2302343e+00 
1.9529326e-01 6.9308763e-03 -1.1953313e+00 
2.6629747e-01 -1.6714278e-03 -1.2315936e+00 
-2.5496465e-01 2.1899580e-02 -1.1469218e+00 
1.5684213e-01 7.3771781e-03 -1.1946789e+00 
2.6698845e-01 -6.8648987e-04 -1.2328131e+00 
-2.5546558e-01 2.0873080e-02 -1.1488034e+00 
1.1848445e-01 7.8651416e-03 -1.1941716e+00 
2.6783845e-01 2.9987103e-04 -1.2338986e+00 
-2.5612567e-01 1.9845017e-02 -1.1505298e+00 
-1.4735795e-01 1.2273523e-02 -1.1543160e+00 
8.0195217e-02 8.3954723e-03 -1.1938093e+00 
2.6884755e-01 1.2876751e-03 -1.2348557e+00 
-2.5694508e-01 1.8815374e-02 -1.1520987e+00 
4.1951787e-02 8.9683699e-03 -1.1935922e+00 
2.7001592e-01 2.2769333e-03 -1.2356897e+00 
-1.8530376e-01 1.3050595e-02 -1.1549825e+00 
-2.5792420e-01 1.7784145e-02 -1.1535079e+00 
3.7312528e-03 9.5835144e-03 -1.1935202e+00 
2.7134396e-01 3.2676477e-03 -1.2364057e+00 
-2.5906112e-01 1.6751333e-02 -1.1547554e+00 
-3.4489265e-02 1.0240058e-02 -1.1935933e+00 
2.7282975e-01 4.2598112e-03 -1.2370082e+00 
-2.2334638e-01 1.3854320e-02 -1.1557968e+00 
-2.6037532e-01 1.5716952e-02 -1.1558395e+00 
-7.2732647e-02 1.0936624e-02 -1.1938114e+00 
2.7449278e-01 5.2534089e-03 -1.2375018e+00 
-2.5790811e-01 2.5022465e-02 -1.1804427e+00 
-2.5793094e-01 2.4020527e-02 -1.1827872e+00 
-2.6168876e-01 1.4681041e-02 -1.1567590e+00 
-2.5811963e-01 2.3017165e-02 -1.1849885e+00 
-1.1102180e-01 1.1671306e-02 -1.1941747e+00 
2.7615506e-01 6.2484078e-03 -1.2378902e+00 
2.3681231e-01 6.6055648e-03 -1.2369666e+00 
2.6874718e-01 -3.3404762e-03 -1.2704138e+00 
-2.5846643e-01 2.2012326e-02 -1.1870431e+00 
1.9776919e-01 7.0043506e-03 -1.2361851e+00 
2.6911896e-01 -2.3783627e-03 -1.2718646e+00 
2.6965652e-01 -1.4149179e-03 -1.2731723e+00 
1.5882284e-01 7.4466611e-03 -1.2355458e+00 
-2.5897236e-01 2.1005974e-02 -1.1889479e+00 
2.7035213e-01 -4.5010117e-04 -1.2743433e+00 
1.1996991e-01 7.9338826e-03 -1.2350487e+00 
2.7120679e-01 5.1611590e-04 -1.2753838e+00 
-2.5963748e-01 1.9998081e-02 -1.1906997e+00 
-1.4937937e-01 1.2441680e-02 -1.1946831e+00 
8.1185399e-02 8.4668674e-03 -1.2346937e+00 
2.7222058e-01 1.4837531e-03 -1.2762998e+00 
-2.6046193e-01 1.8988628e-02 -1.1922959e+00 
4.2446679e-02 9.0459148e-03 -1.2344810e+00 
2.7339364e-01 2.4528211e-03 -1.2770970e+00 
-1.8783037e-01 1.3244816e-02 -1.1953365e+00 
-2.6144610e-01 1.7977608e-02 -1.1937339e+00 
3.7308475e-03 9.6707578e-03 -1.2344105e+00 
2.7472637e-01 3.4233217e-03 -1.2777808e+00 
-2.6258806e-01 1.6965026e-02 -1.1950114e+00 
-3.4984964e-02 1.0340555e-02 -1.2344821e+00 
2.7621683e-01 4.3952480e-03 -1.2783561e+00 
-2.2637815e-01 1.4077298e-02 -1.1961349e+00 
-2.6390727e-01 1.5950893e-02 -1.1961268e+00 
-7.3723628e-02 1.1053890e-02 -1.2346960e+00 
2.7788450e-01 5.3685851e-03 -1.2788276e+00 
-2.6522565e-01 1.4935250e-02 -1.1970783e+00 
-2.6132601e-01 2.5070163e-02 -1.2209922e+00 
-2.6135359e-01 2.4088321e-02 -1.2233538e+00 
-2.6154709e-01 2.3105074e-02 -1.2255752e+00 
-1.1250804e-01 1.1808774e-02 -1.2350521e+00 
2.7955137e-01 6.3433006e-03 -1.2791994e+00 
2.3972347e-01 6.6880738e-03 -1.2782947e+00 
-2.6189877e-01 2.2120370e-02 -1.2276527e+00 
2.0019516e-01 7.0775390e-03 -1.2775292e+00 
2.7202793e-01 -3.0393436e-03 -1.3126146e+00 
2.7240416e-01 -2.0973165e-03 -1.3140073e+00 
1.6076357e-01 7.5138508e-03 -1.2769030e+00 
-2.6240962e-01 2.1134171e-02 -1.2295827e+00 
2.7294622e-01 -1.1539777e-03 -1.3152595e+00 
2.7364638e-01 -2.0928740e-04 -1.3163780e+00 
1.2142536e-01 7.9986057e-03 -1.2764160e+00 
-2.6307970e-01 2.0146450e-02 -1.2313620e+00 
-1.5136086e-01 1.2602656e-02 -1.2355504e+00 
2.7450563e-01 7.3678233e-04 -1.3173697e+00 
8.2155565e-02 8.5328162e-03 -1.2760683e+00 
-2.6390913e-01 1.9157187e-02 -1.2329872e+00 
2.7552403e-01 1.6842508e-03 -1.3182408e+00 
4.2931541e-02 9.1168916e-03 -1.2758600e+00 
-1.9030706e-01 1.3432441e-02 -1.2361908e+00 
2.7670172e-01 2.6331283e-03 -1.3189975e+00 
-2.6489828e-01 1.8166376e-02 -1.2344558e+00 
3.7304027e-03 9.7506234e-03 -1.2757910e+00 
2.7803906e-01 3.5834167e-03 -1.3196455e+00 
-2.6604520e-01 1.7174020e-02 -1.2357651e+00 
-3.5470713e-02 1.0433179e-02 -1.2758613e+00 
-2.2935000e-01 1.4294510e-02 -1.2369733e+00 
2.7953412e-01 4.5351088e-03 -1.3201902e+00 
-2.6736936e-01 1.6180131e-02 -1.2369131e+00 
-7.4694668e-02 1.1163100e-02 -1.2760709e+00 
2.8120637e-01 5.4881898e-03 -1.3206366e+00 
-2.6869263e-01 1.5184748e-02 -1.2378979e+00 
-2.6467464e-01 2.5113198e-02 -1.2620117e+00 
-2.6470688e-01 2.4151462e-02 -1.2643926e+00 
-2.6490514e-01 2.3188339e-02 -1.2666364e+00 
-1.1396436e-01 1.1938308e-02 -1.2764197e+00 
2.8287776e-01 6.4426276e-03 -1.3209889e+00 
-2.6526163e-01 2.2223776e-02 -1.2687392e+00 
2.4257468e-01 6.7723419e-03 -1.3201030e+00 
2.0257116e-01 7.1500798e-03 -1.3193535e+00 
2.7523944e-01 -2.7338303e-03 -1.3553242e+00 
-2.6577735e-01 2.1257736e-02 -1.2706968e+00 
2.7562004e-01 -1.8118980e-03 -1.3566546e+00 
1.6266431e-01 7.5782770e-03 -1.3187403e+00 
2.7616655e-01 -8.8867206e-04 -1.3578470e+00 
1.2285082e-01 8.0587586e-03 -1.3182636e+00 
2.7687120e-01 3.5886746e-05 -1.3589090e+00 
-2.6645232e-01 2.0290190e-02 -1.2725056e+00 
-1.5330241e-01 1.2756118e-02 -1.2769079e+00 
2.7773497e-01 9.6180568e-04 -1.3598476e+00 
8.3105717e-02 8.5927122e-03 -1.3179232e+00 
-2.6728667e-01 1.9321119e-02 -1.2741621e+00 
2.7875792e-01 1.8891036e-03 -1.3606697e+00 
4.3406374e-02 9.1806666e-03 -1.3177193e+00 
-1.9273383e-01 1.3613252e-02 -1.2775353e+00 
-2.6828074e-01 1.8350515e-02 -1.2756632e+00 
2.7994016e-01 2.8177906e-03 -1.3613820e+00 
3.7299131e-03 9.8224782e-03 -1.3176517e+00 
-2.6943257e-01 1.7378382e-02 -1.2770060e+00 
2.8128205e-01 3.7478680e-03 -1.3619906e+00 
-3.5946520e-02 1.0517324e-02 -1.3177206e+00 
-2.3226194e-01 1.4505871e-02 -1.2783019e+00 
2.8278165e-01 4.6793288e-03 -1.3625011e+00 
-2.7076161e-01 1.6404730e-02 -1.2781882e+00 
-7.5645780e-02 1.1263702e-02 -1.3179259e+00 
2.8445840e-01 5.6121581e-03 -1.3629189e+00 
-2.7208971e-01 1.5429599e-02 -1.2792078e+00 
-2.6795394e-01 2.5151630e-02 -1.3034889e+00 
-2.6799080e-01 2.4210012e-02 -1.3058917e+00 
-2.6819375e-01 2.3267021e-02 -1.3081606e+00 
-1.1539075e-01 1.2059437e-02 -1.3182676e+00 
-2.6855500e-01 2.2322606e-02 -1.3102911e+00 
2.8613424e-01 6.5463242e-03 -1.3632485e+00 
2.4536597e-01 6.8581314e-03 -1.3623815e+00 
2.0489721e-01 7.2215884e-03 -1.3616480e+00 
-2.6907552e-01 2.1376729e-02 -1.3122788e+00 
1.6452508e-01 7.6394358e-03 -1.3610479e+00 
2.7838167e-01 -2.4239956e-03 -1.3985356e+00 
2.7876659e-01 -1.5221665e-03 -1.3997992e+00 
2.7931749e-01 -6.1906007e-04 -1.4009273e+00 
-2.6975534e-01 2.0429361e-02 -1.3141196e+00 
-1.5520407e-01 1.2901694e-02 -1.3187457e+00 
1.2424629e-01 8.1137472e-03 -1.3605814e+00 
2.8002657e-01 2.8536217e-04 -1.4019281e+00 
8.4035856e-02 8.6458998e-03 -1.3602483e+00 
-2.7059455e-01 1.9480482e-02 -1.3158097e+00 
2.8089480e-01 1.1911269e-03 -1.4028092e+00 
2.8192223e-01 2.0982524e-03 -1.4035780e+00 
4.3871174e-02 9.2365528e-03 -1.3600488e+00 
-1.9511071e-01 1.3787002e-02 -1.3193602e+00 
-2.7159349e-01 1.8530085e-02 -1.3173454e+00 
2.8310896e-01 3.0067485e-03 -1.4042417e+00 
3.7293730e-03 9.8856333e-03 -1.3599828e+00 
-2.7275018e-01 1.7578171e-02 -1.3187238e+00 
2.8445535e-01 3.9166164e-03 -1.4048067e+00 
-2.3511400e-01 1.4711278e-02 -1.3201109e+00 
-3.6412394e-02 1.0592329e-02 -1.3600503e+00 
-2.7408405e-01 1.6624750e-02 -1.3199421e+00 
2.8595941e-01 4.8278488e-03 -1.4052792e+00 
-7.6576976e-02 1.1355090e-02 -1.3602513e+00 
-2.7541692e-01 1.5669863e-02 -1.3209980e+00 
2.8764061e-01 5.7404307e-03 -1.4056648e+00 
-2.7116388e-01 2.5185513e-02 -1.3454115e+00 
-2.7120530e-01 2.4264022e-02 -1.3478390e+00 
-2.7141290e-01 2.3341173e-02 -1.3501358e+00 
-1.1678725e-01 1.2171636e-02 -1.3605858e+00 
-2.7177886e-01 2.2416913e-02 -1.3522969e+00 
2.8932085e-01 6.6543307e-03 -1.4059685e+00 
2.4809735e-01 6.9451941e-03 -1.4051204e+00 
-2.7230414e-01 2.1491205e-02 -1.3543175e+00 
2.0717332e-01 7.2916556e-03 -1.4044028e+00 
1.6634590e-01 7.6967868e-03 -1.4038158e+00 
2.8145458e-01 -2.1098936e-03 -1.4422419e+00 
-2.7298875e-01 2.0564017e-02 -1.3561930e+00 
-1.5706584e-01 1.3038972e-02 -1.3610538e+00 
2.8184378e-01 -1.2281758e-03 -1.4434337e+00 
2.8239901e-01 -3.4519536e-04 -1.4444927e+00 
1.2561177e-01 8.1629305e-03 -1.4033594e+00 
2.8311246e-01 5.3908531e-04 -1.4454274e+00 
-2.7383277e-01 1.9635331e-02 -1.3579191e+00 
8.4945982e-02 8.6916697e-03 -1.4030337e+00 
2.8398511e-01 1.4246923e-03 -1.4462462e+00 
-1.9743771e-01 1.3953412e-02 -1.3616553e+00 
4.4325940e-02 9.2838050e-03 -1.4028386e+00 
-2.7483653e-01 1.8705139e-02 -1.3594920e+00 
2.8501697e-01 2.3116436e-03 -1.4469571e+00 
2.8620814e-01 3.1999485e-03 -1.4475675e+00 
3.7287756e-03 9.9393396e-03 -1.4027741e+00 
-2.7599803e-01 1.7773440e-02 -1.3609081e+00 
-2.3790620e-01 1.4910609e-02 -1.3623902e+00 
2.8755895e-01 4.0896081e-03 -1.4480846e+00 
-3.6868347e-02 1.0657473e-02 -1.4028402e+00 
-2.7733669e-01 1.6840245e-02 -1.3621645e+00 
2.8906743e-01 4.9806148e-03 -1.4485150e+00 
-7.7488268e-02 1.1436603e-02 -1.4030370e+00 
-2.7867429e-01 1.5905593e-02 -1.3632585e+00 
2.9075302e-01 5.8729536e-03 -1.4488646e+00 
-2.7430442e-01 2.5214894e-02 -1.3877670e+00 
-2.7435036e-01 2.4313542e-02 -1.3902223e+00 
-2.7456256e-01 2.3410843e-02 -1.3925501e+00 
-1.1815386e-01 1.2274334e-02 -1.4033644e+00 
-2.7493318e-01 2.2506745e-02 -1.3947449e+00 
2.9243760e-01 6.7665934e-03 -1.4491388e+00 
-2.7546317e-01 2.1601210e-02 -1.3968014e+00 
2.5076884e-01 7.0332692e-03 -1.4483095e+00 
2.0939952e-01 7.3598443e-03 -1.4476079e+00 
1.6812676e-01 7.7497489e-03 -1.4470340e+00 
-2.7615253e-01 2.0694206e-02 -1.3987145e+00 
-1.5888774e-01 1.3167496e-02 -1.4038223e+00 
2.8445816e-01 -1.7915723e-03 -1.4864364e+00 
2.8485159e-01 -9.2997388e-04 -1.4875513e+00 
1.2694726e-01 8.2056172e-03 -1.4465878e+00 
2.8541110e-01 -6.7125974e-05 -1.4885358e+00 
-2.7700133e-01 1.9785714e-02 -1.4004795e+00 
2.8612888e-01 7.9700816e-04 -1.4893993e+00 
8.5836098e-02 8.7292550e-03 -1.4462694e+00 
2.8700589e-01 1.6624540e-03 -1.4901506e+00 
-1.9971487e-01 1.4112170e-02 -1.4044108e+00 
-2.7800987e-01 1.8875724e-02 -1.4020922e+00 
4.4770666e-02 9.3216153e-03 -1.4460787e+00 
2.8804213e-01 2.5292289e-03 -1.4907984e+00 
3.7281137e-03 9.9827834e-03 -1.4460157e+00 
2.8923768e-01 3.3973421e-03 -1.4913508e+00 
-2.7917614e-01 1.7964237e-02 -1.4035486e+00 
-2.4063857e-01 1.5103720e-02 -1.4051298e+00 
2.9059288e-01 4.2667944e-03 -1.4918153e+00 
-3.7314388e-02 1.0711971e-02 -1.4460805e+00 
-2.8051955e-01 1.7051262e-02 -1.4048453e+00 
2.9210572e-01 5.1375781e-03 -1.4921991e+00 
-7.8379671e-02 1.1507517e-02 -1.4462730e+00 
-2.8186184e-01 1.6136837e-02 -1.4059793e+00 
2.9379564e-01 6.0096781e-03 -1.4925085e+00 
-2.7737551e-01 2.5239815e-02 -1.4305425e+00 
-2.7742593e-01 2.4358612e-02 -1.4330290e+00 
-2.7764269e-01 2.3476073e-02 -1.4353912e+00 
-1.1949060e-01 1.2366901e-02 -1.4465932e+00 
-2.7801794e-01 2.2592144e-02 -1.4376231e+00 
-2.7855261e-01 2.1706786e-02 -1.4397188e+00 
2.9548451e-01 6.8830633e-03 -1.4927493e+00 
2.5338046e-01 7.1220822e-03 -1.4919389e+00 
2.1157580e-01 7.4256872e-03 -1.4912533e+00 
-2.7924669e-01 2.0819969e-02 -1.4416728e+00 
-1.6066979e-01 1.3286763e-02 -1.4470411e+00 
1.6986767e-01 7.7976969e-03 -1.4906925e+00 
2.8739237e-01 -1.4690747e-03 -1.5311129e+00 
2.8778998e-01 -6.2760340e-04 -1.5321452e+00 
1.2825278e-01 8.2410610e-03 -1.4902565e+00 
2.8835374e-01 2.1510562e-04 -1.5330497e+00 
-2.8010022e-01 1.9931671e-02 -1.4434799e+00 
2.8907580e-01 1.0590883e-03 -1.5338362e+00 
8.6706201e-02 8.7578255e-03 -1.4899454e+00 
2.8995713e-01 1.9043693e-03 -1.5345145e+00 
-2.0194219e-01 1.4262928e-02 -1.4476166e+00 
-2.8111351e-01 1.9041882e-02 -1.4451353e+00 
4.5205349e-02 9.3491078e-03 -1.4897591e+00 
2.9099770e-01 2.7509657e-03 -1.5350937e+00 
-2.8228452e-01 1.8150603e-02 -1.4466346e+00 
3.7273790e-03 1.0015081e-02 -1.4896977e+00 
2.9219760e-01 3.5988864e-03 -1.5355827e+00 
-2.4331112e-01 1.5290446e-02 -1.4483198e+00 
2.9355713e-01 4.4481322e-03 -1.5359897e+00 
-2.8363265e-01 1.7257841e-02 -1.4479742e+00 
-3.7750528e-02 1.0754967e-02 -1.4897611e+00 
2.9507429e-01 5.2986953e-03 -1.5363221e+00 
-7.9251199e-02 1.1567044e-02 -1.4899494e+00 
-2.8497960e-01 1.6363636e-02 -1.4491506e+00 
-2.8037713e-01 2.5260314e-02 -1.4737249e+00 
2.9676850e-01 6.1505605e-03 -1.5365869e+00 
-2.8043199e-01 2.4399271e-02 -1.4762464e+00 
-1.2079749e-01 1.2448652e-02 -1.4902624e+00 
-2.8065328e-01 2.3536900e-02 -1.4786468e+00 
-2.8103313e-01 2.2673147e-02 -1.4809195e+00 
-2.8157245e-01 2.1807971e-02 -1.4830582e+00 
2.9846161e-01 7.0036969e-03 -1.5367903e+00 
2.5593223e-01 7.2113428e-03 -1.5359987e+00 
2.1370220e-01 7.4886833e-03 -1.5353291e+00 
-2.8227121e-01 2.0941343e-02 -1.4850567e+00 
-1.6241200e-01 1.3396222e-02 -1.4907003e+00 
1.7156865e-01 7.8399575e-03 -1.5347814e+00 
1.2952832e-01 8.2684559e-03 -1.5343556e+00 
2.9025718e-01 -1.1424376e-03 -1.5762655e+00 
-2.8312945e-01 2.0073239e-02 -1.4869092e+00 
2.9065894e-01 -3.2110127e-04 -1.5772091e+00 
2.9122690e-01 5.0146259e-04 -1.5780273e+00 
8.7556292e-02 8.7764835e-03 -1.5340518e+00 
2.9195322e-01 1.3252887e-03 -1.5787309e+00 
-2.0411970e-01 1.4405302e-02 -1.4912629e+00 
-2.8414746e-01 1.9203650e-02 -1.4886105e+00 
2.9283882e-01 2.1504012e-03 -1.5793301e+00 
4.5629983e-02 9.3653338e-03 -1.5338700e+00 
2.9388369e-01 2.9768166e-03 -1.5798349e+00 
-2.8532318e-01 1.8332575e-02 -1.4901559e+00 
3.7265626e-03 1.0035273e-02 -1.5338101e+00 
2.9508788e-01 3.8045436e-03 -1.5802549e+00 
-2.4592388e-01 1.5470599e-02 -1.4919502e+00 
-2.8667601e-01 1.7460020e-02 -1.4915410e+00 
-3.8176781e-02 1.0785535e-02 -1.5338722e+00 
2.9645171e-01 4.6335832e-03 -1.5805988e+00 
-2.8802760e-01 1.6586024e-02 -1.4927623e+00 
-8.0102866e-02 1.1614325e-02 -1.5340562e+00 
2.9797315e-01 5.4639279e-03 -1.5808747e+00 
-2.8330922e-01 2.5276420e-02 -1.5173011e+00 
-2.8336850e-01 2.4435547e-02 -1.5198615e+00 
2.9967161e-01 6.2955622e-03 -1.5810901e+00 
-2.8359430e-01 2.3593353e-02 -1.5223043e+00 
-1.2207454e-01 1.2518836e-02 -1.5343621e+00 
-2.8397871e-01 2.2749783e-02 -1.5246220e+00 
-2.8452265e-01 2.1904796e-02 -1.5268076e+00 
3.0136892e-01 7.1284555e-03 -1.5812516e+00 
2.5842416e-01 7.3007431e-03 -1.5804789e+00 
-2.8522608e-01 2.1058358e-02 -1.5288544e+00 
-1.6411441e-01 1.3495268e-02 -1.5347899e+00 
2.1577871e-01 7.5482950e-03 -1.5798253e+00 
1.7322971e-01 7.8758051e-03 -1.5792906e+00 
-2.8608901e-01 2.0210449e-02 -1.5307562e+00 
1.3077389e-01 8.2869314e-03 -1.5788751e+00 
2.9305256e-01 -8.1169264e-04 -1.6218884e+00 
2.9345844e-01 -1.0498756e-05 -1.6227369e+00 
2.9403058e-01 7.9191378e-04 -1.6234623e+00 
8.8386367e-02 8.7842575e-03 -1.5785786e+00 
-2.0624743e-01 1.4538867e-02 -1.5353395e+00 
-2.8711171e-01 1.9361057e-02 -1.5325071e+00 
2.9476111e-01 1.5955784e-03 -1.6240762e+00 
2.9565095e-01 2.4005183e-03 -1.6245899e+00 
4.6044562e-02 9.3692656e-03 -1.5784012e+00 
-2.8829213e-01 1.8510180e-02 -1.5341018e+00 
2.9670008e-01 3.2067496e-03 -1.6250140e+00 
3.7256547e-03 1.0042321e-02 -1.5783429e+00 
-2.4847688e-01 1.5643965e-02 -1.5360110e+00 
2.9790855e-01 4.0142813e-03 -1.6253588e+00 
-2.8964963e-01 1.7657826e-02 -1.5355355e+00 
-3.8593159e-02 1.0802666e-02 -1.5784036e+00 
2.9927664e-01 4.8231145e-03 -1.6256337e+00 
-2.9100585e-01 1.6804032e-02 -1.5368044e+00 
-8.0934690e-02 1.1648428e-02 -1.5785834e+00 
3.0080232e-01 5.6332423e-03 -1.6258477e+00 
-2.8617175e-01 2.5288158e-02 -1.5612573e+00 
-2.8623543e-01 2.4467468e-02 -1.5638613e+00 
-2.8646570e-01 2.3645461e-02 -1.5663508e+00 
-1.2332178e-01 1.2576635e-02 -1.5788821e+00 
3.0250499e-01 6.4446495e-03 -1.6260085e+00 
-2.8685467e-01 2.2822080e-02 -1.5687180e+00 
-2.8740322e-01 2.1997284e-02 -1.5709550e+00 
3.0420646e-01 7.2573056e-03 -1.6261234e+00 
2.6085628e-01 7.3899556e-03 -1.6253696e+00 
-2.8811129e-01 2.1171040e-02 -1.5730545e+00 
-1.6577703e-01 1.3583239e-02 -1.5792999e+00 
2.1780535e-01 7.6039443e-03 -1.6247319e+00 
1.7485084e-01 7.9044568e-03 -1.6242103e+00 
-2.8897889e-01 2.0343325e-02 -1.5750097e+00 
1.3198949e-01 8.2955470e-03 -1.6238050e+00 
2.9577848e-01 -4.7686557e-04 -1.6679765e+00 
2.9618846e-01 3.0417860e-04 -1.6687227e+00 
-2.0832539e-01 1.4663155e-02 -1.5798367e+00 
8.9196424e-02 8.7800972e-03 -1.6235159e+00 
2.9676475e-01 1.0864337e-03 -1.6693482e+00 
-2.9000628e-01 1.9514127e-02 -1.5768140e+00 
2.9749946e-01 1.8699316e-03 -1.6698655e+00 
4.6449080e-02 9.3597909e-03 -1.6233429e+00 
2.9839352e-01 2.6546945e-03 -1.6702866e+00 
-2.9119138e-01 1.8683445e-02 -1.5784617e+00 
2.9944688e-01 3.4407382e-03 -1.6706231e+00 
3.7246447e-03 1.0035097e-02 -1.6232861e+00 
-2.5097014e-01 1.5810307e-02 -1.5804924e+00 
3.0065958e-01 4.2280721e-03 -1.6708861e+00 
-2.9255355e-01 1.7851284e-02 -1.5799475e+00 
-3.8999676e-02 1.0805266e-02 -1.6233455e+00 
3.0203191e-01 5.0166980e-03 -1.6710858e+00 
-2.9391438e-01 1.7017682e-02 -1.5812670e+00 
-8.1746685e-02 1.1668338e-02 -1.6235210e+00 
3.0356181e-01 5.8066099e-03 -1.6712318e+00 
-2.8896467e-01 2.5295551e-02 -1.6055798e+00 
-2.8903273e-01 2.4495053e-02 -1.6082322e+00 
-1.2453922e-01 1.2621160e-02 -1.6238127e+00 
-2.8926748e-01 2.3693241e-02 -1.6107735e+00 
3.0526867e-01 6.5977934e-03 -1.6713325e+00 
-2.8966098e-01 2.2890058e-02 -1.6131950e+00 
-2.9021413e-01 2.2085458e-02 -1.6154882e+00 
-2.9092684e-01 2.1279409e-02 -1.6176452e+00 
-1.6739988e-01 1.3659413e-02 -1.6242205e+00 
3.0697427e-01 7.3902182e-03 -1.6713956e+00 
2.6322860e-01 7.4786311e-03 -1.6706607e+00 
2.1978214e-01 7.6550092e-03 -1.6700390e+00 
1.7643205e-01 7.9250678e-03 -1.6695305e+00 
-2.9179910e-01 2.0471887e-02 -1.6196583e+00 
1.3317512e-01 8.2932864e-03 -1.6691354e+00 
-2.1035360e-01 1.4777653e-02 -1.6247443e+00 
2.9843493e-01 -1.3797648e-04 -1.7145249e+00 
-2.9283117e-01 1.9662879e-02 -1.6215204e+00 
2.9884898e-01 6.2291102e-04 -1.7151613e+00 
8.9986460e-02 8.7628669e-03 -1.6688536e+00 
2.9942939e-01 1.3850029e-03 -1.7156793e+00 
3.0016827e-01 2.1483286e-03 -1.7160922e+00 
4.6843528e-02 9.3357066e-03 -1.6686851e+00 
-2.9402094e-01 1.8852386e-02 -1.6232251e+00 
3.0106652e-01 2.9129095e-03 -1.7164132e+00 
3.0212408e-01 3.6787612e-03 -1.7166548e+00 
-2.5340367e-01 1.5969359e-02 -1.6253842e+00 
3.7235219e-03 1.0012383e-02 -1.6686298e+00 
-2.9538778e-01 1.8040410e-02 -1.6247667e+00 
3.0334100e-01 4.4458937e-03 -1.7168288e+00 
-3.9396345e-02 1.0792152e-02 -1.6686879e+00 
3.0471753e-01 5.2143104e-03 -1.7169465e+00 
-2.9675321e-01 1.7226993e-02 -1.6261401e+00 
-8.2538868e-02 1.1672956e-02 -1.6688592e+00 
3.0625162e-01 5.9840067e-03 -1.7170179e+00 
-2.9168795e-01 2.5298611e-02 -1.6502544e+00 
-2.9176038e-01 2.4518318e-02 -1.6529605e+00 
-1.2572688e-01 1.2651445e-02 -1.6691438e+00 
-2.9199958e-01 2.3736712e-02 -1.6555589e+00 
3.0796265e-01 6.7549695e-03 -1.7170525e+00 
-2.9239762e-01 2.2953731e-02 -1.6580401e+00 
-2.9295536e-01 2.2169332e-02 -1.6603949e+00 
-2.9367270e-01 2.1383478e-02 -1.6626145e+00 
-1.6898297e-01 1.3723004e-02 -1.6695415e+00 
3.0967236e-01 7.5271690e-03 -1.7170585e+00 
2.6554114e-01 7.5663961e-03 -1.7163423e+00 
2.2170908e-01 7.7008197e-03 -1.7157366e+00 
1.7797336e-01 7.9367264e-03 -1.7152413e+00 
-2.9454964e-01 2.0596147e-02 -1.6646905e+00 
1.3433078e-01 8.2790519e-03 -1.7148564e+00 
-2.1233208e-01 1.4881799e-02 -1.6700525e+00 
-2.9558638e-01 1.9807327e-02 -1.6666151e+00 
3.0102186e-01 2.0496011e-04 -1.7615294e+00 
9.0756473e-02 8.7313391e-03 -1.7145819e+00 
3.0143998e-01 9.4568443e-04 -1.7620477e+00 
3.0202450e-01 1.6876072e-03 -1.7624498e+00 
3.0276752e-01 2.4307553e-03 -1.7627502e+00 
4.7227901e-02 9.2957116e-03 -1.7144178e+00 
-2.9678082e-01 1.9017015e-02 -1.6683813e+00 
3.0366993e-01 3.1751485e-03 -1.7629629e+00 
-2.5577749e-01 1.6120826e-02 -1.6706765e+00 
3.7222753e-03 9.9728599e-03 -1.7143641e+00 
3.0473168e-01 3.9208026e-03 -1.7631016e+00 
-2.9815232e-01 1.8225218e-02 -1.6699827e+00 
3.0595278e-01 4.6677290e-03 -1.7631790e+00 
-3.9783181e-02 1.0762041e-02 -1.7144209e+00 
-2.9952236e-01 1.7431974e-02 -1.6714137e+00 
3.0733350e-01 5.4159330e-03 -1.7632071e+00 
-8.3311257e-02 1.1661090e-02 -1.7145880e+00 
3.0887177e-01 6.1654128e-03 -1.7631972e+00 
-2.9434153e-01 2.5297351e-02 -1.6952665e+00 
-2.9441833e-01 2.4537274e-02 -1.6980321e+00 
-2.9466199e-01 2.3775882e-02 -1.7006936e+00 
-1.2688478e-01 1.2666439e-02 -1.7148654e+00 
-2.9506457e-01 2.3013112e-02 -1.7032404e+00 
3.1058695e-01 6.9161575e-03 -1.7631591e+00 
-2.9562690e-01 2.2248916e-02 -1.7056625e+00 
-2.9634889e-01 2.1483259e-02 -1.7079503e+00 
-1.7052633e-01 1.3773155e-02 -1.7152531e+00 
3.1230077e-01 7.6681379e-03 -1.7631019e+00 
2.6779392e-01 7.6528500e-03 -1.7624046e+00 
2.2358619e-01 7.7406530e-03 -1.7618149e+00 
-2.9723049e-01 2.0716116e-02 -1.7100946e+00 
1.7947477e-01 7.9384475e-03 -1.7613326e+00 
1.3545648e-01 8.2516572e-03 -1.7609579e+00 
-2.1426086e-01 1.4974979e-02 -1.7157512e+00 
-2.9827191e-01 1.9947477e-02 -1.7120870e+00 
9.1506458e-02 8.6841874e-03 -1.7606908e+00 
3.0353926e-01 5.5193520e-04 -1.8089860e+00 
3.0396144e-01 1.2724904e-03 -1.8093774e+00 
3.0455005e-01 1.9942387e-03 -1.8096547e+00 
-2.9947104e-01 1.9177340e-02 -1.7139195e+00 
4.7602191e-02 9.2384000e-03 -1.7605311e+00 
3.0529719e-01 2.7172031e-03 -1.8098336e+00 
3.0620375e-01 3.4414020e-03 -1.8099293e+00 
-2.5809164e-01 1.6264382e-02 -1.7163595e+00 
3.7208948e-03 9.9151020e-03 -1.7604790e+00 
3.0726966e-01 4.1668516e-03 -1.8099564e+00 
-3.0084721e-01 1.8405712e-02 -1.7155852e+00 
3.0849494e-01 4.8935652e-03 -1.8099287e+00 
-4.0160198e-02 1.0713547e-02 -1.7605344e+00 
-3.0222186e-01 1.7632633e-02 -1.7170780e+00 
3.0987984e-01 5.6215516e-03 -1.8098594e+00 
-8.4063868e-02 1.1631449e-02 -1.7606973e+00 
3.1142228e-01 6.3508126e-03 -1.8097605e+00 
-2.9692538e-01 2.5291774e-02 -1.7406013e+00 
-2.9700654e-01 2.4551926e-02 -1.7434328e+00 
-2.9725467e-01 2.3810759e-02 -1.7461636e+00 
-1.2801294e-01 1.2665007e-02 -1.7609676e+00 
-2.9766179e-01 2.3068206e-02 -1.7487824e+00 
3.1314160e-01 7.0813410e-03 -1.8096428e+00 
-2.9822874e-01 2.2324217e-02 -1.7512782e+00 
-2.9895538e-01 2.1578754e-02 -1.7536403e+00 
-1.7202999e-01 1.3808937e-02 -1.7613454e+00 
3.1485951e-01 7.8131087e-03 -1.8095160e+00 
2.6998695e-01 7.7375623e-03 -1.8088376e+00 
2.2541348e-01 7.7737286e-03 -1.8082638e+00 
-2.9984166e-01 2.0831796e-02 -1.7558590e+00 
1.8093629e-01 7.9291668e-03 -1.8077947e+00 
1.3655221e-01 8.2098205e-03 -1.8074302e+00 
-2.1613996e-01 1.5056522e-02 -1.7618305e+00 
-3.0088778e-01 2.0083331e-02 -1.7579247e+00 
9.2236416e-02 8.6199788e-03 -1.8071703e+00 
3.0598712e-01 9.0294495e-04 -1.8568913e+00 
3.0641334e-01 1.6033260e-03 -1.8571463e+00 
-3.0209160e-01 1.9333360e-02 -1.7598289e+00 
3.0700603e-01 2.3048945e-03 -1.8572893e+00 
4.7966393e-02 9.1622529e-03 -1.8070151e+00 
3.0775728e-01 3.0076690e-03 -1.8573371e+00 
-2.6034613e-01 1.6399667e-02 -1.7624230e+00 
3.0866796e-01 3.7116659e-03 -1.8573062e+00 
3.7193721e-03 9.8375685e-03 -1.8069646e+00 
-3.0347244e-01 1.8581892e-02 -1.7615639e+00 
3.0973802e-01 4.4169022e-03 -1.8572123e+00 
-4.0527406e-02 1.0645170e-02 -1.8070186e+00 
3.1096746e-01 5.1233943e-03 -1.8570707e+00 
-3.0485172e-01 1.7828967e-02 -1.7631228e+00 
3.1235653e-01 5.8311557e-03 -1.8568953e+00 
-8.4796715e-02 1.1582638e-02 -1.8071773e+00 
3.1390314e-01 6.5401938e-03 -1.8566992e+00 
-2.9943945e-01 2.5281882e-02 -1.7862435e+00 
-2.9952498e-01 2.4562276e-02 -1.7891478e+00 
-1.2911137e-01 1.2645915e-02 -1.8074405e+00 
-2.9977758e-01 2.3841344e-02 -1.7919550e+00 
-3.0018927e-01 2.3119014e-02 -1.7946527e+00 
3.1562661e-01 7.2505070e-03 -1.8564943e+00 
-3.0076084e-01 2.2395233e-02 -1.7972289e+00 
-3.0149216e-01 2.1669964e-02 -1.7996722e+00 
-1.7349395e-01 1.3829339e-02 -1.8078082e+00 
3.1734862e-01 7.9620689e-03 -1.8562910e+00 
2.7212027e-01 7.8200690e-03 -1.8556314e+00 
-3.0238315e-01 2.0943183e-02 -1.8019716e+00 
2.2719096e-01 7.7992028e-03 -1.8550736e+00 
1.8235792e-01 7.9077333e-03 -1.8546175e+00 
-2.1796940e-01 1.5125699e-02 -1.8082805e+00 
-3.0343399e-01 2.0214884e-02 -1.8041169e+00 
1.3761799e-01 8.1521562e-03 -1.8542632e+00 
9.2946349e-02 8.5371645e-03 -1.8540106e+00 
-3.0464251e-01 1.9485069e-02 -1.8060987e+00 
3.0836540e-01 1.2579901e-03 -1.9052425e+00 
3.0879567e-01 1.9381930e-03 -1.9053508e+00 
3.0939243e-01 2.6195771e-03 -1.9053491e+00 
4.8320506e-02 9.0656291e-03 -1.8538599e+00 
-2.6254099e-01 1.6526286e-02 -1.8088572e+00 
3.1014776e-01 3.3021547e-03 -1.9052554e+00 
3.1106256e-01 3.9859404e-03 -1.9050877e+00 
-3.0602805e-01 1.8753750e-02 -1.8079083e+00 
3.7177018e-03 9.7385952e-03 -1.8538108e+00 
3.1213674e-01 4.6709524e-03 -1.9048629e+00 
-4.0884815e-02 1.0555291e-02 -1.8538635e+00 
3.1337034e-01 5.3572116e-03 -1.9045975e+00 
-3.0741197e-01 1.8020970e-02 -1.8095383e+00 
3.1476358e-01 6.0447380e-03 -1.9043066e+00 
-8.5509811e-02 1.1513148e-02 -1.8540179e+00 
3.1631436e-01 6.7335471e-03 -1.9040045e+00 
-3.0188368e-01 2.5267669e-02 -1.8321775e+00 
-3.0197359e-01 2.4568319e-02 -1.8351621e+00 
-1.3018010e-01 1.2607829e-02 -1.8542740e+00 
-3.0223070e-01 2.3867634e-02 -1.8380531e+00 
-3.0264698e-01 2.3165533e-02 -1.8408372e+00 
-3.0322321e-01 2.2461962e-02 -1.8435014e+00 
3.1804200e-01 7.4236452e-03 -1.9037042e+00 
-3.0395924e-01 2.1756881e-02 -1.8460331e+00 
-1.7491824e-01 1.3833267e-02 -1.8546318e+00 
3.1976813e-01 8.1150085e-03 -1.9034169e+00 
-3.0485497e-01 2.1050271e-02 -1.8484204e+00 
2.7419388e-01 7.8998688e-03 -1.9027761e+00 
2.2891865e-01 7.8161620e-03 -1.9022342e+00 
1.8373968e-01 7.8729010e-03 -1.9017912e+00 
-2.1974919e-01 1.5181715e-02 -1.8550911e+00 
-3.0591054e-01 2.0342126e-02 -1.8506521e+00 
1.3865382e-01 8.0771650e-03 -1.9014471e+00 
9.3636260e-02 8.4340699e-03 -1.9012018e+00 
-3.0712380e-01 1.9632455e-02 -1.8527178e+00 
3.1067411e-01 1.6170752e-03 -1.9540375e+00 
3.1110842e-01 2.2770974e-03 -1.9539880e+00 
4.8664534e-02 8.9467545e-03 -1.9010554e+00 
3.1170924e-01 2.9382930e-03 -1.9538303e+00 
-2.6467622e-01 1.6643807e-02 -1.8556520e+00 
3.1246864e-01 3.6006665e-03 -1.9535841e+00 
-3.0851404e-01 1.8921273e-02 -1.8546080e+00 
3.1338752e-01 4.2642301e-03 -1.9532685e+00 
3.7158842e-03 9.6163830e-03 -1.9010079e+00 
3.1446582e-01 4.9290041e-03 -1.9529019e+00 
-4.1232429e-02 1.0442158e-02 -1.9010592e+00 
-3.0990261e-01 1.8208627e-02 -1.8563145e+00 
3.1570356e-01 5.5950155e-03 -1.9525021e+00 
-8.6203165e-02 1.1421345e-02 -1.9012093e+00 
3.1710097e-01 6.2622938e-03 -1.9520856e+00 
-3.0425802e-01 2.5249124e-02 -1.8783872e+00 
-3.0435233e-01 2.4570046e-02 -1.8814602e+00 
3.1865595e-01 6.9308649e-03 -1.9516680e+00 
-3.0461397e-01 2.3889619e-02 -1.8844432e+00 
-1.3121913e-01 1.2549305e-02 -1.9014582e+00 
-3.0503488e-01 2.3207754e-02 -1.8873219e+00 
-3.0561583e-01 2.2524392e-02 -1.8900821e+00 
3.2038778e-01 7.6007469e-03 -1.9512632e+00 
-3.0635661e-01 2.1839494e-02 -1.8927102e+00 
-1.7630288e-01 1.3819531e-02 -1.9018060e+00 
-3.0725711e-01 2.1153043e-02 -1.8951932e+00 
3.2211807e-01 8.2719198e-03 -1.9508838e+00 
2.7620781e-01 7.9764181e-03 -1.9502619e+00 
2.3059657e-01 7.8236153e-03 -1.9497359e+00 
1.8508158e-01 7.8233192e-03 -1.9493059e+00 
-2.2147937e-01 1.5223706e-02 -1.9022524e+00 
-3.0831746e-01 2.0465039e-02 -1.8975186e+00 
1.3965970e-01 7.9832228e-03 -1.9489719e+00 
9.4306164e-02 8.3088817e-03 -1.9487339e+00 
-3.0953547e-01 1.9775496e-02 -1.8996752e+00 
3.1291324e-01 1.9802070e-03 -2.0032744e+00 
-2.6675186e-01 1.6751754e-02 -1.9027975e+00 
4.8998486e-02 8.8037092e-03 -1.9485918e+00 
3.1335159e-01 2.6200480e-03 -2.0030553e+00 
3.1395644e-01 3.2610518e-03 -2.0027298e+00 
-3.1093044e-01 1.9084439e-02 -1.9016525e+00 
3.1471989e-01 3.9032133e-03 -2.0023190e+00 
3.7139270e-03 9.4689853e-03 -1.9485457e+00 
3.1564283e-01 4.5465418e-03 -2.0018435e+00 
3.1672522e-01 5.1910611e-03 -2.0013234e+00 
-3.1232368e-01 1.8391916e-02 -1.9034414e+00 
-4.1570244e-02 1.0303876e-02 -1.9485956e+00 
3.1796710e-01 5.8368063e-03 -2.0007777e+00 
-8.6876777e-02 1.1305463e-02 -1.9487414e+00 
3.1936869e-01 6.4838193e-03 -2.0002247e+00 
-3.0656240e-01 2.5226230e-02 -1.9248562e+00 
-3.0666114e-01 2.4567442e-02 -1.9280263e+00 
3.2092789e-01 7.1321407e-03 -1.9996811e+00 
-1.3222847e-01 1.2468778e-02 -1.9489832e+00 
-3.0692736e-01 2.3907285e-02 -1.9311102e+00 
-3.0735296e-01 2.3245661e-02 -1.9340923e+00 
-3.0793867e-01 2.2582508e-02 -1.9369573e+00 
3.2266396e-01 7.7818041e-03 -1.9991623e+00 
-3.0868426e-01 2.1917785e-02 -1.9396904e+00 
-1.7764787e-01 1.3786844e-02 -1.9493208e+00 
-3.0958959e-01 2.1251478e-02 -1.9422773e+00 
3.2439846e-01 8.4327959e-03 -1.9986820e+00 
2.7816209e-01 8.0491256e-03 -1.9980789e+00 
2.3222474e-01 7.8204849e-03 -1.9975688e+00 
-2.2315994e-01 1.5250731e-02 -1.9497544e+00 
1.8638364e-01 7.7575203e-03 -1.9971518e+00 
-3.1065475e-01 2.0583597e-02 -1.9447046e+00 
1.4063568e-01 7.8685660e-03 -1.9968279e+00 
-3.1187754e-01 1.9914166e-02 -1.9469597e+00 
9.4956082e-02 8.1596324e-03 -1.9965970e+00 
-2.6876792e-01 1.6849606e-02 -1.9502837e+00 
4.9322384e-02 8.6344108e-03 -1.9964592e+00 
3.1508279e-01 2.3473925e-03 -2.0529523e+00 
3.1552519e-01 2.9670542e-03 -2.0525508e+00 
3.1613405e-01 3.5878643e-03 -2.0520445e+00 
-3.1327726e-01 1.9243217e-02 -1.9490312e+00 
3.1690149e-01 4.2098053e-03 -2.0514562e+00 
3.7118499e-03 9.2942914e-03 -1.9964145e+00 
3.1782846e-01 4.8328837e-03 -2.0508081e+00 
-3.1467518e-01 1.8570807e-02 -1.9509089e+00 
3.1891492e-01 5.4571278e-03 -2.0501218e+00 
-4.1898246e-02 1.0138391e-02 -1.9964629e+00 
3.2016093e-01 6.0825839e-03 -2.0494180e+00 
-8.7530642e-02 1.1163585e-02 -1.9966043e+00 
3.2156672e-01 6.7093102e-03 -2.0487165e+00 
-3.0879676e-01 2.5198961e-02 -1.9715674e+00 
-3.0889997e-01 2.4560483e-02 -1.9748440e+00 
-3.0917083e-01 2.3920610e-02 -1.9780383e+00 
-1.3320812e-01 1.2364550e-02 -1.9968389e+00 
3.2313017e-01 7.3373666e-03 -2.0480357e+00 
-3.0960118e-01 2.3279234e-02 -1.9811333e+00 
-3.1019173e-01 2.2636285e-02 -1.9841126e+00 
3.2487055e-01 7.9668081e-03 -2.0473924e+00 
-3.1094221e-01 2.1991725e-02 -1.9869601e+00 
-1.7895324e-01 1.3733806e-02 -1.9971664e+00 
-3.1185242e-01 2.1345546e-02 -1.9896602e+00 
3.2660933e-01 8.5976294e-03 -2.0468016e+00 
2.8005672e-01 8.1173457e-03 -2.0462173e+00 
2.3380317e-01 7.8055953e-03 -2.0457231e+00 
-2.2479092e-01 1.5261766e-02 -1.9975870e+00 
-3.1292245e-01 2.0697767e-02 -1.9921981e+00 
1.8764588e-01 7.6739045e-03 -2.0453190e+00 
1.4158177e-01 7.7312739e-03 -2.0450051e+00 
-3.1415006e-01 2.0048425e-02 -1.9945601e+00 
9.5586050e-02 7.9841798e-03 -2.0447813e+00 
-2.7072442e-01 1.6936792e-02 -1.9981005e+00 
4.9636268e-02 8.4365926e-03 -2.0446477e+00 
3.1718279e-01 2.7186357e-03 -2.1030708e+00 
-3.1555454e-01 1.9397568e-02 -1.9967335e+00 
3.1762921e-01 3.3181235e-03 -2.1024732e+00 
3.1824204e-01 3.9187393e-03 -2.1017724e+00 
3.1901345e-01 4.5204509e-03 -2.1009928e+00 
3.7096892e-03 9.0900045e-03 -2.0446043e+00 
3.1994439e-01 5.1232618e-03 -2.1001583e+00 
-3.1695714e-01 1.8745260e-02 -1.9987070e+00 
3.2103488e-01 5.7272066e-03 -2.0992921e+00 
-4.2216403e-02 9.9434658e-03 -2.0446511e+00 
3.2228500e-01 6.3323460e-03 -2.0984168e+00 
-8.8164737e-02 1.0993625e-02 -2.0447881e+00 
3.2369501e-01 6.9387594e-03 -2.0975540e+00 
-3.1096100e-01 2.5167282e-02 -2.0185036e+00 
-3.1106874e-01 2.4549136e-02 -2.0218969e+00 
-3.1134431e-01 2.3929563e-02 -2.0252117e+00 
-1.3415808e-01 1.2234773e-02 -2.0450153e+00 
3.2526277e-01 7.5465320e-03 -2.0967237e+00 
-3.1177952e-01 2.3308440e-02 -2.0284300e+00 
-3.1237501e-01 2.2685691e-02 -2.0315338e+00 
3.2700755e-01 8.1557468e-03 -2.0959445e+00 
-3.1313046e-01 2.2061280e-02 -2.0345057e+00 
-1.8021897e-01 1.3658890e-02 -2.0453327e+00 
-3.1404564e-01 2.1435207e-02 -2.0373288e+00 
3.2875071e-01 8.7664104e-03 -2.0952329e+00 
2.8189174e-01 8.1803696e-03 -2.0946673e+00 
2.3533190e-01 7.7776584e-03 -2.0941890e+00 
-2.2637233e-01 1.5255692e-02 -2.0457402e+00 
-3.1512058e-01 2.0807503e-02 -2.0399869e+00 
1.8886835e-01 7.5707208e-03 -2.0937978e+00 
1.4249802e-01 7.5692441e-03 -2.0934938e+00 
-3.1635304e-01 2.0178225e-02 -2.0424649e+00 
9.6196123e-02 7.7801796e-03 -2.0932770e+00 
-2.7262139e-01 1.7012686e-02 -2.0462379e+00 
4.9940196e-02 8.2077744e-03 -2.0931474e+00 
-3.1776229e-01 1.9547441e-02 -2.0447487e+00 
3.1921327e-01 3.0939336e-03 -2.1536300e+00 
3.1966369e-01 3.6732569e-03 -2.1528218e+00 
3.2028044e-01 4.2536799e-03 -2.1519117e+00 
3.7075039e-03 8.8536121e-03 -2.0931051e+00 
3.2105573e-01 4.8351529e-03 -2.1509260e+00 
-3.1916957e-01 1.8915224e-02 -2.0468257e+00 
3.2199058e-01 5.4176767e-03 -2.1498902e+00 
-4.2524663e-02 9.7166577e-03 -2.0931502e+00 
3.2308506e-01 6.0012941e-03 -2.1488296e+00 
3.2433927e-01 6.5860846e-03 -2.1477684e+00 
-8.8779022e-02 1.0793305e-02 -2.0932826e+00 
3.2575351e-01 7.1721542e-03 -2.1467303e+00 
-3.1305504e-01 2.5131145e-02 -2.0656469e+00 
-3.1316737e-01 2.4533357e-02 -2.0691677e+00 
-1.3507832e-01 1.2077429e-02 -2.0935024e+00 
-3.1344777e-01 2.3934102e-02 -2.0726141e+00 
-3.1388794e-01 2.3333238e-02 -2.0759666e+00 
3.2732564e-01 7.7596204e-03 -2.1457373e+00 
-3.1448848e-01 2.2730683e-02 -2.0792059e+00 
-3.1524902e-01 2.2126402e-02 -2.0823131e+00 
-1.8144508e-01 1.3560430e-02 -2.0938095e+00 
3.2907493e-01 8.3486030e-03 -2.1448099e+00 
-3.1616926e-01 2.1520407e-02 -2.0852700e+00 
3.3082262e-01 8.9391246e-03 -2.1439662e+00 
2.8366716e-01 8.2374149e-03 -2.1434193e+00 
-2.2790417e-01 1.5231286e-02 -2.0942040e+00 
2.3681094e-01 7.7352559e-03 -2.1429567e+00 
-3.1724920e-01 2.0912748e-02 -2.0880587e+00 
1.9005108e-01 7.4460406e-03 -2.1425783e+00 
1.4338450e-01 7.3801610e-03 -2.1422841e+00 
-3.1848654e-01 2.0303504e-02 -2.0906625e+00 
9.6786381e-02 7.5450486e-03 -2.1420741e+00 
-2.7445885e-01 1.7076597e-02 -2.0946859e+00 
5.0234257e-02 7.9452232e-03 -2.1419485e+00 
-3.1990057e-01 1.9692771e-02 -2.0930659e+00 
3.2117428e-01 3.4732698e-03 -2.2046308e+00 
3.2162866e-01 4.0324432e-03 -2.2035963e+00 
3.2224924e-01 4.5926776e-03 -2.2024614e+00 
3.7053841e-03 8.5823457e-03 -2.1419072e+00 
3.2302831e-01 5.1539031e-03 -2.2012538e+00 
-3.2131251e-01 1.9080637e-02 -2.0952549e+00 
3.2396698e-01 5.7161180e-03 -2.2000009e+00 
-4.2822946e-02 9.4552737e-03 -2.1419503e+00 
3.2506538e-01 6.2793765e-03 -2.1987300e+00 
3.2632366e-01 6.8437814e-03 -2.1974676e+00 
-8.9373433e-02 1.0560118e-02 -2.1420779e+00 
3.2774215e-01 7.4094720e-03 -2.1962391e+00 
-3.1507876e-01 2.5090483e-02 -2.1129790e+00 
-3.1519578e-01 2.4513085e-02 -2.1166390e+00 
-3.1548112e-01 2.3934168e-02 -2.1202287e+00 
-1.3596880e-01 1.1890297e-02 -2.1422901e+00 
-3.1592641e-01 2.3353569e-02 -2.1237271e+00 
3.2931874e-01 7.9766061e-03 -2.1950690e+00 
-3.1653217e-01 2.2771199e-02 -2.1271137e+00 
-3.1729793e-01 2.2187027e-02 -2.1303681e+00 
-1.8263153e-01 1.3436594e-02 -2.1425869e+00 
3.3107268e-01 8.5453505e-03 -2.1939798e+00 
-3.1822334e-01 2.1601080e-02 -2.1334702e+00 
3.3282507e-01 9.1157496e-03 -2.1929919e+00 
2.8538299e-01 8.2876123e-03 -2.1924636e+00 
-2.2938647e-01 1.5187200e-02 -2.1429683e+00 
-3.1930835e-01 2.1013429e-02 -2.1364007e+00 
2.3824035e-01 7.6768145e-03 -2.1920167e+00 
1.9119415e-01 7.2977244e-03 -2.1916509e+00 
1.4424129e-01 7.1614526e-03 -2.1913663e+00 
-3.2055063e-01 2.0424186e-02 -2.1391412e+00 
9.7356939e-02 7.2759147e-03 -2.1911630e+00 
-2.7623683e-01 1.7127763e-02 -2.1434342e+00 
-3.2196941e-01 1.9833479e-02 -2.1416743e+00 
5.0518580e-02 7.6458976e-03 -2.1910410e+00 
3.2306591e-01 3.8566067e-03 -2.2560746e+00 
3.2352417e-01 4.3956510e-03 -2.2547974e+00 
3.7034608e-03 8.2731244e-03 -2.1910004e+00 
3.2414846e-01 4.9357043e-03 -2.2534208e+00 
-3.2338598e-01 1.9241418e-02 -2.1439844e+00 
3.2493119e-01 5.4766742e-03 -2.2519745e+00 
3.2587356e-01 6.0185577e-03 -2.2504878e+00 
-4.3111128e-02 9.1563198e-03 -2.1910414e+00 
3.2697577e-01 6.5614233e-03 -2.2489898e+00 
-8.9947869e-02 1.0291276e-02 -2.1911640e+00 
3.2823807e-01 7.1054025e-03 -2.2475093e+00 
3.2966083e-01 7.6506753e-03 -2.2460742e+00 
-3.1703202e-01 2.5045209e-02 -2.1604815e+00 
-3.1715386e-01 2.4488237e-02 -2.1642930e+00 
-3.1744431e-01 2.3929681e-02 -2.1680383e+00 
-1.3682945e-01 1.1670915e-02 -2.1913685e+00 
-3.1789491e-01 2.3369354e-02 -2.1716953e+00 
3.3124197e-01 8.1974492e-03 -2.2447114e+00 
-3.1850606e-01 2.2807160e-02 -2.1752418e+00 
-3.1927722e-01 2.2243073e-02 -2.1786559e+00 
-1.8377829e-01 1.3285352e-02 -2.1916547e+00 
3.3300074e-01 8.7459505e-03 -2.2434458e+00 
-3.2020795e-01 2.1677136e-02 -2.1819157e+00 
-2.3081921e-01 1.5121945e-02 -2.1920228e+00 
3.3475806e-01 9.2962518e-03 -2.2423003e+00 
-3.2129813e-01 2.1109453e-02 -2.1850002e+00 
2.8703924e-01 8.3299886e-03 -2.2417906e+00 
2.3962016e-01 7.6005752e-03 -2.2413592e+00 
1.9229764e-01 7.1233758e-03 -2.2410059e+00 
-3.2254537e-01 2.0540170e-02 -2.1878890e+00 
1.4506853e-01 6.9102313e-03 -2.2407308e+00 
-2.7795536e-01 1.7165335e-02 -2.1924727e+00 
9.7907954e-02 6.9695468e-03 -2.2405338e+00 
-3.2396890e-01 1.9969464e-02 -2.1905628e+00 
5.0793345e-02 7.3063721e-03 -2.2404152e+00 
3.2488827e-01 4.2438750e-03 -2.3079632e+00 
3.2535028e-01 4.7628184e-03 -2.3064258e+00 
3.7019190e-03 7.9224769e-03 -2.2403750e+00 
-3.2539003e-01 1.9397470e-02 -2.1930042e+00 
3.2597812e-01 5.2827024e-03 -2.3047900e+00 
3.2676433e-01 5.8034104e-03 -2.3030872e+00 
3.2771023e-01 6.3249400e-03 -2.3013486e+00 
-4.3389038e-02 8.8164249e-03 -2.2404135e+00 
3.2881614e-01 6.8473780e-03 -2.2996056e+00 
-9.0502186e-02 9.9836480e-03 -2.2405309e+00 
3.3008239e-01 7.3708904e-03 -2.2978892e+00 
-3.1891467e-01 2.4995204e-02 -2.2081353e+00 
3.3150944e-01 7.8957055e-03 -2.2962300e+00 
-3.1904148e-01 2.4458702e-02 -2.2121114e+00 
-3.1933726e-01 2.3920535e-02 -2.2160256e+00 
-1.3766016e-01 1.1416522e-02 -2.2407273e+00 
-3.1979339e-01 2.3380489e-02 -2.2198544e+00 
3.3309522e-01 8.4220910e-03 -2.2946575e+00 
-3.2041016e-01 2.2838460e-02 -2.2235743e+00 
-3.2118694e-01 2.2294430e-02 -2.2271614e+00 
-1.8488533e-01 1.3104436e-02 -2.2410028e+00 
3.3485903e-01 8.9503465e-03 -2.2931996e+00 
-3.2212316e-01 2.1748464e-02 -2.2305924e+00 
-2.3220240e-01 1.5033857e-02 -2.2413575e+00 
-3.2321863e-01 2.1200701e-02 -2.2338440e+00 
3.3662156e-01 9.4805813e-03 -2.2918819e+00 
2.8863592e-01 8.3634437e-03 -2.2913907e+00 
2.4095043e-01 7.5045514e-03 -2.2909747e+00 
1.9336165e-01 6.9202798e-03 -2.2906337e+00 
-3.2447088e-01 2.0651334e-02 -2.2368938e+00 
1.4586638e-01 6.6232144e-03 -2.2903677e+00 
-2.7961448e-01 1.7188364e-02 -2.2417913e+00 
9.8439642e-02 6.6222603e-03 -2.2901768e+00 
-3.2589912e-01 2.0100601e-02 -2.2397203e+00 
5.1058797e-02 6.9227321e-03 -2.2900612e+00 
-3.2732472e-01 1.9548668e-02 -2.2423039e+00 
3.7010128e-03 7.5264337e-03 -2.2900210e+00 
3.2664149e-01 4.6349596e-03 -2.3602988e+00 
3.2710709e-01 5.1338389e-03 -2.3584829e+00 
3.2773825e-01 5.6335703e-03 -2.3565695e+00 
3.2852771e-01 6.1340135e-03 -2.3545914e+00 
-4.3656437e-02 8.4317368e-03 -2.2900567e+00 
3.2947692e-01 6.6351696e-03 -2.3525820e+00 
3.3058636e-01 7.1371479e-03 -2.3505748e+00 
-9.1036182e-02 9.6336644e-03 -2.2901684e+00 
3.3185648e-01 7.6401546e-03 -2.3486034e+00 
-3.2072651e-01 2.4940312e-02 -2.2559215e+00 
-3.2085851e-01 2.4424331e-02 -2.2600759e+00 
3.3328780e-01 8.1444745e-03 -2.3467011e+00 
-3.2115988e-01 2.3906585e-02 -2.2641729e+00 
-1.3846080e-01 1.1123980e-02 -2.2903565e+00 
-3.2162182e-01 2.3386831e-02 -2.2681875e+00 
-3.2224452e-01 2.2864957e-02 -2.2720948e+00 
3.3487836e-01 8.6504460e-03 -2.3449006e+00 
-3.2302716e-01 2.2340953e-02 -2.2758693e+00 
-1.8595254e-01 1.2891278e-02 -2.2906210e+00 
3.3664746e-01 9.1584577e-03 -2.3432330e+00 
-3.2396909e-01 2.1814913e-02 -2.2794857e+00 
-2.3353602e-01 1.4921057e-02 -2.2909620e+00 
-3.2506997e-01 2.1287019e-02 -2.2829186e+00 
3.3841553e-01 9.6686662e-03 -2.3417273e+00 
2.9017302e-01 8.3867227e-03 -2.3412545e+00 
2.4223121e-01 7.3864739e-03 -2.3408538e+00 
1.9438633e-01 6.6853200e-03 -2.3405248e+00 
-3.2632730e-01 2.0757523e-02 -2.2861432e+00 
1.4663506e-01 6.2966143e-03 -2.3402676e+00 
-2.8121424e-01 1.7195777e-02 -2.2913795e+00 
9.8952288e-02 6.2297860e-03 -2.3400823e+00 
-3.2776018e-01 2.0226733e-02 -2.2891354e+00 
5.1315264e-02 6.4904296e-03 -2.3399692e+00 
-3.2919013e-01 1.9694860e-02 -2.2918732e+00 
3.7010838e-03 7.0803780e-03 -2.3399286e+00 
3.2832575e-01 5.0296827e-03 -2.4130838e+00 
3.2879470e-01 5.5085439e-03 -2.4109703e+00 
3.2942888e-01 5.9881456e-03 -2.4087599e+00 
3.3022128e-01 6.4683267e-03 -2.4064870e+00 
-4.3912999e-02 7.9977791e-03 -2.3399609e+00 
3.3117354e-01 6.9490958e-03 -2.4041869e+00 
3.3228629e-01 7.4305898e-03 -2.4018953e+00 
-9.1549580e-02 9.2371870e-03 -2.3400665e+00 
3.3356014e-01 7.9130600e-03 -2.3996485e+00 
-3.2246732e-01 2.4880327e-02 -2.3038208e+00 
-3.2260478e-01 2.4384925e-02 -2.3081679e+00 
-1.3923114e-01 1.0789670e-02 -2.3402458e+00 
-3.2291206e-01 2.3887639e-02 -2.3124621e+00 
3.3499574e-01 8.3968548e-03 -2.3974828e+00 
-3.2338018e-01 2.3388191e-02 -2.3166772e+00 
-3.2400914e-01 2.2886461e-02 -2.3207868e+00 
3.3659118e-01 8.8823939e-03 -2.3954345e+00 
-3.2479797e-01 2.2382454e-02 -2.3247639e+00 
-1.8697983e-01 1.2642928e-02 -2.3404990e+00 
-3.2574586e-01 2.1876294e-02 -2.3285809e+00 
3.3836586e-01 9.3701720e-03 -2.3935383e+00 
-2.3482006e-01 1.4781403e-02 -2.3408261e+00 
-3.2685234e-01 2.1368215e-02 -2.3322103e+00 
3.4013987e-01 9.8604048e-03 -2.3918272e+00 
2.9165050e-01 8.3983784e-03 -2.3913726e+00 
2.4346258e-01 7.2437179e-03 -2.3909869e+00 
-3.2811480e-01 2.0858537e-02 -2.3356245e+00 
1.9537186e-01 6.4148675e-03 -2.3906697e+00 
1.4737486e-01 5.9259911e-03 -2.3904209e+00 
-2.8275471e-01 1.7186348e-02 -2.3412272e+00 
9.9446268e-02 5.7870929e-03 -2.3902407e+00 
-3.2955226e-01 2.0347660e-02 -2.3387968e+00 
5.1563178e-02 6.0040859e-03 -2.3901295e+00 
-3.3098639e-01 1.9835850e-02 -2.3417019e+00 
3.7025833e-03 6.5788421e-03 -2.3900878e+00 
3.2994129e-01 5.4277820e-03 -2.4663209e+00 
3.3041323e-01 5.8866810e-03 -2.4638898e+00 
3.3105006e-01 6.3461831e-03 -2.4613624e+00 
3.3184502e-01 6.8061129e-03 -2.4587744e+00 
-4.4158295e-02 7.5092548e-03 -2.3901162e+00 
3.3279998e-01 7.2664931e-03 -2.4561628e+00 
3.3391578e-01 7.7274923e-03 -2.4535655e+00 
-9.2042011e-02 8.7893342e-03 -2.3902151e+00 
3.3519319e-01 8.1894113e-03 -2.4510216e+00 
-3.2413684e-01 2.4814976e-02 -2.3518141e+00 
-3.2428010e-01 2.4340224e-02 -2.3563688e+00 
-3.2459370e-01 2.3863442e-02 -2.3608752e+00 
-1.3997094e-01 1.0409342e-02 -2.3903851e+00 
3.3663301e-01 8.6526669e-03 -2.4485708e+00 
-3.2506842e-01 2.3384318e-02 -2.3653060e+00 
-3.2570407e-01 2.2902726e-02 -2.3696335e+00 
3.3823346e-01 9.1177691e-03 -2.4462532e+00 
-3.2649947e-01 2.2418685e-02 -2.3738290e+00 
-1.8796702e-01 1.2355951e-02 -2.3906265e+00 
-3.2745364e-01 2.1932358e-02 -2.3778628e+00 
3.4001403e-01 9.5853361e-03 -2.4441079e+00 
-2.3605449e-01 1.4612409e-02 -2.3909394e+00 
-3.2856593e-01 2.1444037e-02 -2.3817049e+00 
3.4179444e-01 1.0055657e-02 -2.4421723e+00 
2.9306831e-01 8.3967226e-03 -2.4417358e+00 
2.4464462e-01 7.0732059e-03 -2.4413648e+00 
-3.2983360e-01 2.0954126e-02 -2.3853248e+00 
1.9631847e-01 6.1046316e-03 -2.4410589e+00 
-2.8423597e-01 1.7158661e-02 -2.3913239e+00 
1.4808615e-01 5.5060542e-03 -2.4408179e+00 
-3.3127555e-01 2.0463132e-02 -2.3886925e+00 
9.9922064e-02 5.2881482e-03 -2.4406423e+00 
5.1803097e-02 5.4572253e-03 -2.4405324e+00 
-3.3271365e-01 1.9971388e-02 -2.3917794e+00 
3.7060962e-03 6.0152321e-03 -2.4404889e+00 
3.3148835e-01 5.8288854e-03 -2.5200119e+00 
3.3196284e-01 6.2678875e-03 -2.5172431e+00 
3.3260182e-01 6.7073277e-03 -2.5143781e+00 
-4.4391766e-02 6.9597804e-03 -2.4405125e+00 
3.3339888e-01 7.1470292e-03 -2.5114540e+00 
3.3435612e-01 7.5870368e-03 -2.5085094e+00 
3.3547463e-01 8.0275552e-03 -2.5055842e+00 
-9.2512993e-02 8.2842424e-03 -2.4406040e+00 
3.3675537e-01 8.4689354e-03 -2.5027204e+00 
-3.2573476e-01 2.4743910e-02 -2.3998825e+00 
-3.2588425e-01 2.4289888e-02 -2.4046602e+00 
-1.4067981e-01 9.9779192e-03 -2.4407641e+00 
-3.2620467e-01 2.3833661e-02 -2.4093942e+00 
3.3819933e-01 8.9116644e-03 -2.4999614e+00 
-3.2668652e-01 2.3374883e-02 -2.4140565e+00 
-3.2732936e-01 2.2913424e-02 -2.4186180e+00 
3.3980488e-01 9.3563481e-03 -2.4973512e+00 
-1.8891392e-01 1.2026270e-02 -2.4409932e+00 
-3.2813181e-01 2.2449322e-02 -2.4230483e+00 
-3.2909263e-01 2.1982782e-02 -2.4273159e+00 
3.4159168e-01 9.8037444e-03 -2.4949343e+00 
-2.3723926e-01 1.4411157e-02 -2.4412915e+00 
-3.3021099e-01 2.1514164e-02 -2.4313880e+00 
3.4337902e-01 1.0254231e-02 -2.4927533e+00 
2.9442636e-01 8.3797637e-03 -2.4923347e+00 
2.4577741e-01 6.8712812e-03 -2.4919782e+00 
-3.3148398e-01 2.1043965e-02 -2.4352309e+00 
1.9722645e-01 5.7494626e-03 -2.4916831e+00 
-2.8565816e-01 1.7111056e-02 -2.4416591e+00 
1.4876939e-01 5.0303968e-03 -2.4914494e+00 
-3.3293033e-01 2.0572824e-02 -2.4388109e+00 
1.0038029e-01 4.7255974e-03 -2.4912775e+00 
5.2035731e-02 4.8419183e-03 -2.4911680e+00 
-3.3437216e-01 2.0101157e-02 -2.4420953e+00 
3.7123697e-03 5.3814581e-03 -2.4911218e+00 
3.3296725e-01 6.2324808e-03 -2.5741586e+00 
3.3344367e-01 6.6516591e-03 -2.5710312e+00 
3.3408421e-01 7.0710836e-03 -2.5678079e+00 
-4.4612694e-02 6.3415297e-03 -2.4911399e+00 
3.3488280e-01 7.4905963e-03 -2.5645265e+00 
3.3584184e-01 7.9102753e-03 -2.5612267e+00 
-9.2961902e-02 7.7147458e-03 -2.4912231e+00 
3.3696264e-01 8.3303639e-03 -2.5579507e+00 
3.3824642e-01 8.7512601e-03 -2.5547432e+00 
-3.2726074e-01 2.4666680e-02 -2.4480080e+00 
-3.2741700e-01 2.4233479e-02 -2.4530243e+00 
-3.2774484e-01 2.3797865e-02 -2.4580015e+00 
-1.4135728e-01 9.4892362e-03 -2.4913725e+00 
-3.2823444e-01 2.3359462e-02 -2.4629110e+00 
3.3969438e-01 9.1735161e-03 -2.5516512e+00 
-3.2888509e-01 2.2918136e-02 -2.4677229e+00 
-3.2969513e-01 2.2473948e-02 -2.4724053e+00 
-1.8982025e-01 1.1648975e-02 -2.4915887e+00 
3.4130509e-01 9.5978339e-03 -2.5487237e+00 
-3.3066307e-01 2.2027149e-02 -2.4769244e+00 
3.4309846e-01 1.0025124e-02 -2.5460106e+00 
-2.3837432e-01 1.4174160e-02 -2.4918719e+00 
-3.3178784e-01 2.1578179e-02 -2.4812447e+00 
3.4489329e-01 1.0455872e-02 -2.5435610e+00 
2.9572450e-01 8.3451256e-03 -2.5431601e+00 
-3.3306630e-01 2.1127640e-02 -2.4853291e+00 
2.4686106e-01 6.6335412e-03 -2.5428177e+00 
1.9809613e-01 5.3430914e-03 -2.5425329e+00 
-2.8702141e-01 1.7041562e-02 -2.4922223e+00 
1.4942517e-01 4.4911462e-03 -2.5423058e+00 
-3.3451696e-01 2.0676323e-02 -2.4891397e+00 
1.0082171e-01 4.0903394e-03 -2.5421368e+00 
5.2261972e-02 4.1483091e-03 -2.5420268e+00 
-3.3596223e-01 2.0224743e-02 -2.4926391e+00 
3.7223421e-03 4.6674461e-03 -2.5419768e+00 
3.3437829e-01 6.6378835e-03 -2.6287613e+00 
3.3485589e-01 7.0373155e-03 -2.6252546e+00 
3.3549726e-01 7.4367782e-03 -2.6216522e+00 
-4.4820175e-02 5.6447625e-03 -2.5419882e+00 
3.3629673e-01 7.8361638e-03 -2.6179922e+00 
3.3725699e-01 8.2355975e-03 -2.6143150e+00 
-9.3387949e-02 7.0719549e-03 -2.5420622e+00 
3.3837962e-01 8.6353609e-03 -2.6106647e+00 
3.3966605e-01 9.0358886e-03 -2.6070885e+00 
-3.2871439e-01 2.4582722e-02 -2.4961733e+00 
-3.2887808e-01 2.4170443e-02 -2.5014437e+00 
-1.4200277e-01 8.9356866e-03 -2.5422000e+00 
-3.2921407e-01 2.3755508e-02 -2.5066797e+00 
-3.2971215e-01 2.3337512e-02 -2.5118526e+00 
3.4111779e-01 9.4377844e-03 -2.6036376e+00 
-3.3037133e-01 2.2916323e-02 -2.5169315e+00 
-3.3118963e-01 2.2492024e-02 -2.5218833e+00 
-1.9068565e-01 1.1218059e-02 -2.5424025e+00 
3.4273365e-01 9.8418375e-03 -2.6003660e+00 
-3.3216526e-01 2.2064925e-02 -2.5266723e+00 
3.4453388e-01 1.0249118e-02 -2.5973300e+00 
-2.3945958e-01 1.3897195e-02 -2.5426701e+00 
-3.3329685e-01 2.1635547e-02 -2.5312600e+00 
3.4633680e-01 1.0660235e-02 -2.5945863e+00 
-3.3458099e-01 2.1204614e-02 -2.5356057e+00 
2.9696252e-01 8.2899431e-03 -2.5942028e+00 
2.4789567e-01 6.3546208e-03 -2.5938741e+00 
1.9892794e-01 4.8777895e-03 -2.5935990e+00 
-2.8832596e-01 1.6947806e-02 -2.5430030e+00 
1.5005418e-01 3.8785055e-03 -2.5933776e+00 
-3.3603589e-01 2.0773092e-02 -2.5396668e+00 
1.0124728e-01 3.3709721e-03 -2.5932106e+00 
5.2482918e-02 3.3639973e-03 -2.5930989e+00 
-3.3748430e-01 2.0341607e-02 -2.5434001e+00 
3.7371729e-03 3.8604978e-03 -2.5930440e+00 
3.3572181e-01 7.0442019e-03 -2.6838186e+00 
3.3619962e-01 7.4239629e-03 -2.6799123e+00 
-4.5013089e-02 4.8572082e-03 -2.5930476e+00 
3.3684098e-01 7.8035242e-03 -2.6759105e+00 
3.3764061e-01 8.1828728e-03 -2.6718508e+00 
3.3860146e-01 8.5621972e-03 -2.6677741e+00 
-9.3790153e-02 6.3447035e-03 -2.5931112e+00 
3.3972534e-01 8.9418133e-03 -2.6637257e+00 
-3.3009527e-01 2.4491339e-02 -2.5443624e+00 
-3.3026720e-01 2.4100092e-02 -2.5499024e+00 
3.4101398e-01 9.3221716e-03 -2.6597554e+00 
-3.3061218e-01 2.3705906e-02 -2.5554127e+00 
-1.4261551e-01 8.3077694e-03 -2.5932364e+00 
-3.3111964e-01 2.3308353e-02 -2.5608646e+00 
3.4246916e-01 9.7039006e-03 -2.6559183e+00 
-3.3178820e-01 2.2907301e-02 -2.5662269e+00 
-3.3261554e-01 2.2502869e-02 -2.5714657e+00 
-1.9150968e-01 1.0726082e-02 -2.5934244e+00 
3.4409004e-01 1.0087855e-02 -2.6522740e+00 
-3.3359954e-01 2.2095423e-02 -2.5765433e+00 
3.4589736e-01 1.0475261e-02 -2.6488860e+00 
-2.4049497e-01 1.3575085e-02 -2.5936757e+00 
-3.3473846e-01 2.1685581e-02 -2.5814184e+00 
-3.3602857e-01 2.1274198e-02 -2.5860464e+00 
3.4770891e-01 1.0866869e-02 -2.6458198e+00 
2.9814012e-01 8.2107279e-03 -2.6454534e+00 
2.4888132e-01 6.0279143e-03 -2.6451380e+00 
-2.8957207e-01 1.6826898e-02 -2.5939906e+00 
1.9972238e-01 4.3439303e-03 -2.6448720e+00 
-3.3748770e-01 2.0862432e-02 -2.5903794e+00 
1.5065730e-01 3.1801616e-03 -2.6446555e+00 
1.0165812e-01 2.5530744e-03 -2.6444893e+00 
-3.3893895e-01 2.0451041e-02 -2.5943679e+00 
5.2699901e-02 2.4732398e-03 -2.6443747e+00 
3.7582703e-03 2.9444669e-03 -2.6443136e+00 
3.3699810e-01 7.4503058e-03 -2.7393269e+00 
-4.5190071e-02 3.9632731e-03 -2.6443080e+00 
3.3747496e-01 7.8104588e-03 -2.7350014e+00 
3.3811536e-01 8.1701823e-03 -2.7305807e+00 
3.3891436e-01 8.5296180e-03 -2.7261011e+00 
3.3987512e-01 8.8890375e-03 -2.7216034e+00 
-9.4167312e-02 5.5188404e-03 -2.6443600e+00 
3.4099966e-01 9.2487788e-03 -2.7171334e+00 
-3.3140292e-01 2.4391683e-02 -2.5925614e+00 
-3.3158403e-01 2.4021586e-02 -2.5983860e+00 
3.4228993e-01 9.6092752e-03 -2.7127432e+00 
-1.4319458e-01 7.5935053e-03 -2.6444715e+00 
-3.3193903e-01 2.3648223e-02 -2.6041853e+00 
-3.3245687e-01 2.3271144e-02 -2.6099313e+00 
-3.3313581e-01 2.2890226e-02 -2.6155931e+00 
3.4374808e-01 9.9711354e-03 -2.7084917e+00 
-3.3397313e-01 2.2505623e-02 -2.6211361e+00 
-1.9229178e-01 1.0163731e-02 -2.6446439e+00 
3.4537370e-01 1.0335239e-02 -2.7044443e+00 
-3.3496630e-01 2.2117773e-02 -2.6265212e+00 
-2.4148037e-01 1.3201414e-02 -2.6448783e+00 
3.4718815e-01 1.0702949e-02 -2.7006724e+00 
-3.3611321e-01 2.1727399e-02 -2.6317044e+00 
-3.3740970e-01 2.1335497e-02 -2.6366368e+00 
3.4900877e-01 1.1075173e-02 -2.6972520e+00 
2.9925687e-01 8.1031978e-03 -2.6969026e+00 
2.4981809e-01 5.6452187e-03 -2.6965999e+00 
-2.9076010e-01 1.6675283e-02 -2.6451748e+00 
2.0048001e-01 3.7294273e-03 -2.6963422e+00 
-3.3887310e-01 2.0943438e-02 -2.6412650e+00 
1.5123552e-01 2.3805272e-03 -2.6961296e+00 
1.0205561e-01 1.6182904e-03 -2.6959631e+00 
-3.4032698e-01 2.0552115e-02 -2.6455320e+00 
5.2914505e-02 1.4559339e-03 -2.6958444e+00 
3.7873114e-03 1.8987111e-03 -2.6957757e+00 
-4.5349492e-02 2.9430350e-03 -2.6957596e+00 
3.3820735e-01 7.8548029e-03 -2.7952796e+00 
3.3868192e-01 8.1953835e-03 -2.7905165e+00 
3.3932035e-01 8.5353294e-03 -2.7856587e+00 
3.4011793e-01 8.8750158e-03 -2.7807405e+00 
-9.4517987e-02 4.5763329e-03 -2.6957986e+00 
3.4107792e-01 9.2148170e-03 -2.7758013e+00 
3.4220245e-01 9.5550730e-03 -2.7708869e+00 
-3.3263683e-01 2.4282743e-02 -2.6407588e+00 
-3.3282826e-01 2.3933920e-02 -2.6468821e+00 
-3.3319444e-01 2.3581454e-02 -2.6529842e+00 
-1.4373886e-01 6.7776999e-03 -2.6958951e+00 
3.4349369e-01 9.8961484e-03 -2.7660511e+00 
-3.3372385e-01 2.3224870e-02 -2.6590385e+00 
-3.3441434e-01 2.2864059e-02 -2.6650150e+00 
3.4495414e-01 1.0238565e-02 -2.7613561e+00 
-3.3526273e-01 2.2499222e-02 -2.6708789e+00 
-1.9303127e-01 9.5192808e-03 -2.6960511e+00 
3.4658395e-01 1.0583164e-02 -2.7568734e+00 
-3.3626604e-01 2.2130882e-02 -2.6765901e+00 
-2.4241563e-01 1.2768175e-02 -2.6962677e+00 
-3.3742171e-01 2.1759879e-02 -2.6821022e+00 
3.4840533e-01 1.0931402e-02 -2.7526832e+00 
-3.3872513e-01 2.1387363e-02 -2.6873623e+00 
3.5023526e-01 1.1284350e-02 -2.7488731e+00 
3.0031220e-01 7.9620591e-03 -2.7485404e+00 
-2.9189050e-01 1.6488557e-02 -2.6965453e+00 
2.5070604e-01 5.1962833e-03 -2.7482500e+00 
2.0120150e-01 3.0190236e-03 -2.7479999e+00 
-3.4019301e-01 2.1014928e-02 -2.6923107e+00 
1.5179004e-01 1.4597853e-03 -2.7477903e+00 
1.0244133e-01 5.4317595e-04 -2.7476223e+00 
-3.4164937e-01 2.0643604e-02 -2.6968822e+00 
5.3128580e-02 2.8634115e-04 -2.7474981e+00 
3.8262518e-03 6.9678326e-04 -2.7474204e+00 
-4.5489450e-02 1.7709922e-03 -2.7473924e+00 
3.3934960e-01 8.2560335e-03 -2.8516657e+00 
3.3982035e-01 8.5770282e-03 -2.8464487e+00 
3.4045580e-01 8.8972435e-03 -2.8411377e+00 
3.4125124e-01 9.2173841e-03 -2.8357640e+00 
-9.4840488e-02 3.4941557e-03 -2.7474171e+00 
3.4220985e-01 9.5379467e-03 -2.8303647e+00 
3.4333372e-01 9.8592403e-03 -2.8249845e+00 
-3.3379648e-01 2.4163342e-02 -2.6889463e+00 
-3.3399952e-01 2.3835923e-02 -2.6953810e+00 
-1.4424704e-01 5.8410369e-03 -2.7474975e+00 
-3.3437824e-01 2.3504420e-02 -2.7017984e+00 
3.4462514e-01 1.0181489e-02 -2.8196779e+00 
-3.3492062e-01 2.3168329e-02 -2.7081738e+00 
-3.3562399e-01 2.2827556e-02 -2.7144787e+00 
3.4608699e-01 1.0505034e-02 -2.8145100e+00 
-3.3648472e-01 2.2482368e-02 -2.7206791e+00 
-1.9372736e-01 8.7779183e-03 -2.7476359e+00 
3.4772010e-01 1.0830580e-02 -2.8095583e+00 
-3.3749932e-01 2.2133392e-02 -2.7267344e+00 
-2.4330059e-01 1.2265344e-02 -2.7478339e+00 
-3.3866471e-01 2.1781606e-02 -2.7325965e+00 
3.4954777e-01 1.1159606e-02 -2.8049122e+00 
-3.3997578e-01 2.1428326e-02 -2.7382083e+00 
3.5138686e-01 1.1493342e-02 -2.8006725e+00 
3.0130535e-01 7.7807341e-03 -2.8003564e+00 
-2.9296384e-01 1.6261243e-02 -2.7480922e+00 
2.5154518e-01 4.6682464e-03 -2.8000780e+00 
2.0188757e-01 2.1934063e-03 -2.7998349e+00 
-3.4144850e-01 2.1075374e-02 -2.7435039e+00 
1.5232219e-01 3.9269941e-04 -2.7996273e+00 
1.0281708e-01 -7.0223118e-04 -2.7994567e+00 
-3.4290745e-01 2.0723903e-02 -2.7484087e+00 
5.3344230e-02 -1.0684869e-03 -2.7993259e+00 
3.8773138e-03 -6.9517562e-04 -2.7992379e+00 
-4.5607783e-02 4.1453794e-04 -2.7991967e+00 
3.4042460e-01 8.6520968e-03 -2.9084696e+00 
3.4088991e-01 8.9534138e-03 -2.9027846e+00 
3.4152148e-01 9.2539152e-03 -2.8970070e+00 
3.4231425e-01 9.5547476e-03 -2.8911637e+00 
-9.5132886e-02 2.2429469e-03 -2.7992059e+00 
3.4327102e-01 9.8565445e-03 -2.8852882e+00 
3.4439361e-01 1.0159537e-02 -2.8794230e+00 
-3.3488130e-01 2.4032137e-02 -2.7371191e+00 
-3.3509743e-01 2.3726256e-02 -2.7438766e+00 
-1.4471758e-01 4.7589866e-03 -2.7992690e+00 
-3.3549027e-01 2.3415772e-02 -2.7506199e+00 
3.4568430e-01 1.0463713e-02 -2.8736218e+00 
-3.3604722e-01 2.3100131e-02 -2.7573273e+00 
-3.3676507e-01 2.2779257e-02 -2.7639726e+00 
3.4714636e-01 1.0769108e-02 -2.8679519e+00 
-1.9437909e-01 7.9209495e-03 -2.7993890e+00 
-3.3763961e-01 2.2453505e-02 -2.7705234e+00 
-3.3866681e-01 2.2123642e-02 -2.7769397e+00 
3.4878140e-01 1.1076157e-02 -2.8624959e+00 
-2.4413504e-01 1.1680370e-02 -2.7995677e+00 
-3.3984307e-01 2.1790817e-02 -2.7831722e+00 
3.5061413e-01 1.1386245e-02 -2.8573532e+00 
-3.4116273e-01 2.1456525e-02 -2.7891603e+00 
3.5246165e-01 1.1700735e-02 -2.8526391e+00 
-2.9398081e-01 1.5986534e-02 -2.7998062e+00 
3.0223532e-01 7.5510214e-03 -2.8523396e+00 
2.5233544e-01 4.0449407e-03 -2.8520728e+00 
-3.4264091e-01 2.1122812e-02 -2.7948319e+00 
2.0253902e-01 1.2281175e-03 -2.8518360e+00 
1.5283348e-01 -8.5284340e-04 -2.8516297e+00 
1.0318489e-01 -2.1561548e-03 -2.8514558e+00 
-3.4410282e-01 2.0790921e-02 -2.8001022e+00 
5.3563784e-02 -2.6506173e-03 -2.8513173e+00 
3.9429446e-03 -2.3203686e-03 -2.8512182e+00 
-4.5702112e-02 -1.1678558e-03 -2.8511629e+00 
3.4143169e-01 9.0409268e-03 -2.9656696e+00 
3.4188996e-01 9.3223585e-03 -2.9595059e+00 
3.4251703e-01 9.6031084e-03 -2.9532516e+00 
3.4330691e-01 9.8848843e-03 -2.9469280e+00 
-9.5393056e-02 7.8542457e-04 -2.8511557e+00 
3.4426164e-01 1.0168462e-02 -2.9405636e+00 
-3.3589068e-01 2.3887628e-02 -2.7852773e+00 
3.4538246e-01 1.0453931e-02 -2.9341969e+00 
-3.3612157e-01 2.3603429e-02 -2.7923667e+00 
-3.3653037e-01 2.3314004e-02 -2.7994443e+00 
-1.4514881e-01 3.5005400e-03 -2.8512008e+00 
-3.3710379e-01 2.3018707e-02 -2.8064923e+00 
3.4667143e-01 1.0740929e-02 -2.9278795e+00 
-3.3783797e-01 2.2717486e-02 -2.8134876e+00 
3.4813214e-01 1.1029027e-02 -2.9216791e+00 
-3.3872803e-01 2.2410816e-02 -2.8204006e+00 
-1.9498541e-01 6.9248854e-03 -2.8513016e+00 
-3.3976937e-01 2.2099651e-02 -2.8271930e+00 
3.4976711e-01 1.1318210e-02 -2.9156828e+00 
-2.4491878e-01 1.0997612e-02 -2.8514605e+00 
-3.4095783e-01 2.1785358e-02 -2.8338153e+00 
3.5160282e-01 1.1609600e-02 -2.9099995e+00 
-3.4228721e-01 2.1469641e-02 -2.8402046e+00 
-2.9494221e-01 1.5656009e-02 -2.8516789e+00 
3.5345713e-01 1.1904634e-02 -2.9047602e+00 
3.0310081e-01 7.2626796e-03 -2.9044774e+00 
2.5307668e-01 3.3060527e-03 -2.9042222e+00 
-3.4377179e-01 2.1154753e-02 -2.8462827e+00 
2.0315669e-01 9.2240320e-05 -2.9039916e+00 
1.5332552e-01 -2.3175856e-03 -2.9037862e+00 
1.0354690e-01 -3.8671671e-03 -2.9036084e+00 
-3.4523748e-01 2.0841971e-02 -2.8519545e+00 
5.3789721e-02 -4.5135020e-03 -2.9034619e+00 
4.0257334e-03 -4.2336113e-03 -2.9033513e+00 
-4.5769934e-02 -3.0287395e-03 -2.9032815e+00 
3.4236958e-01 9.4204472e-03 -3.0232373e+00 
3.4281950e-01 9.6816234e-03 -3.0165877e+00 
3.4344191e-01 9.9424944e-03 -3.0098508e+00 
-9.5618758e-02 -9.2540852e-04 -2.9032577e+00 
3.4422920e-01 1.0205437e-02 -3.0030405e+00 
3.4518212e-01 1.0471360e-02 -2.9961786e+00 
-3.3682392e-01 2.3728158e-02 -2.8334258e+00 
-3.3707146e-01 2.3465806e-02 -2.8408538e+00 
3.4630088e-01 1.0740139e-02 -2.9892978e+00 
-3.3749839e-01 2.3197462e-02 -2.8482716e+00 
-1.4553892e-01 2.0268048e-03 -2.9032845e+00 
-3.3809054e-01 2.2922327e-02 -2.8556659e+00 
3.4758707e-01 1.1010928e-02 -2.9824454e+00 
-3.3884323e-01 2.2640374e-02 -2.8630180e+00 
-3.3975081e-01 2.2352233e-02 -2.8703022e+00 
-1.9554518e-01 5.7604595e-03 -2.9033658e+00 
3.4904444e-01 1.1282647e-02 -2.9756878e+00 
-3.4080803e-01 2.2059114e-02 -2.8774833e+00 
3.5067654e-01 1.1554606e-02 -2.9691147e+00 
-2.4565153e-01 1.0197745e-02 -2.9035048e+00 
-3.4201021e-01 2.1762667e-02 -2.8845134e+00 
3.5251200e-01 1.1827418e-02 -2.9628433e+00 
-3.4335069e-01 2.1464849e-02 -2.8913284e+00 
-2.9584895e-01 1.5259357e-02 -2.9037031e+00 
3.5437015e-01 1.2102488e-02 -2.9570214e+00 
3.0390022e-01 6.9029307e-03 -2.9567558e+00 
-3.4484294e-01 2.1168108e-02 -2.8978453e+00 
2.5376862e-01 2.4261291e-03 -2.9565124e+00 
2.0374141e-01 -1.2531508e-03 -2.9562881e+00 
1.5379998e-01 -4.0529601e-03 -2.9560839e+00 
-3.4631381e-01 2.0873661e-02 -2.9039586e+00 
1.0390535e-01 -5.8966301e-03 -2.9559025e+00 
5.4024561e-02 -6.7246058e-03 -2.9557485e+00 
4.1282712e-03 -6.5039233e-03 -2.9556269e+00 
-4.5808771e-02 -5.2340305e-03 -2.9555434e+00 
3.4323624e-01 9.7888329e-03 -3.0811366e+00 
3.4367701e-01 1.0029170e-02 -3.0739986e+00 
3.4429536e-01 1.0269893e-02 -3.0667776e+00 
-9.5807789e-02 -2.9482038e-03 -2.9555036e+00 
3.4508109e-01 1.0514118e-02 -3.0594789e+00 
3.4603300e-01 1.0762857e-02 -3.0521158e+00 
-3.3768013e-01 2.3551902e-02 -2.8815754e+00 
-3.3794650e-01 2.3311605e-02 -2.8893459e+00 
3.4714977e-01 1.1015699e-02 -3.0447130e+00 
-3.3839416e-01 2.3064359e-02 -2.8971068e+00 
-1.4588614e-01 2.8955593e-04 -2.9555128e+00 
-3.3900777e-01 2.2809127e-02 -2.9048499e+00 
3.4843208e-01 1.1271185e-02 -3.0373110e+00 
-3.3978158e-01 2.2545899e-02 -2.9125622e+00 
-3.4070903e-01 2.2275502e-02 -2.9202235e+00 
-1.9605723e-01 4.3916721e-03 -2.9555753e+00 
3.4988367e-01 1.1527384e-02 -3.0299719e+00 
-3.4178412e-01 2.1999467e-02 -2.9278030e+00 
3.5150912e-01 1.1782651e-02 -3.0227853e+00 
-2.4633303e-01 9.2572408e-03 -2.9556947e+00 
-3.4300170e-01 2.1719819e-02 -2.9352564e+00 
3.5333956e-01 1.2036748e-02 -3.0158753e+00 
-3.4435483e-01 2.1438838e-02 -2.9425208e+00 
-2.9670205e-01 1.4784164e-02 -2.9558733e+00 
3.5519680e-01 1.2290872e-02 -3.0094056e+00 
3.0463156e-01 6.4558869e-03 -3.0091582e+00 
-3.4585639e-01 2.1159158e-02 -2.9495100e+00 
2.5441080e-01 1.3734441e-03 -3.0089275e+00 
2.0429393e-01 -2.8567571e-03 -3.0087105e+00 
1.5425846e-01 -6.1234453e-03 -3.0085086e+00 
-3.4733455e-01 2.0881824e-02 -2.9561092e+00 
1.0426237e-01 -8.3214791e-03 -3.0083251e+00 
5.4270685e-02 -9.3683727e-03 -3.0081651e+00 
4.2529437e-03 -9.2173936e-03 -3.0080345e+00 
-4.5816406e-02 -7.8655112e-03 -3.0079395e+00 
3.4402859e-01 1.0144924e-02 -3.1393232e+00 
3.4446044e-01 1.0363568e-02 -3.1316993e+00 
3.4507638e-01 1.0583666e-02 -3.1239980e+00 
-9.5958217e-02 -5.3552121e-03 -3.0078860e+00 
3.4586253e-01 1.0809048e-02 -3.1162146e+00 
3.4681500e-01 1.1040782e-02 -3.1083520e+00 
-3.3845816e-01 2.3356802e-02 -2.9297428e+00 
-3.3874593e-01 2.3138845e-02 -2.9378567e+00 
-3.3921751e-01 2.2912738e-02 -2.9459602e+00 
-1.4618893e-01 -1.7700874e-03 -3.0078796e+00 
3.4793031e-01 1.1278116e-02 -3.1004245e+00 
-3.3985589e-01 2.2677109e-02 -2.9540514e+00 
-3.4065399e-01 2.2431950e-02 -2.9621239e+00 
3.4920775e-01 1.1518898e-02 -3.0924630e+00 
-3.4160408e-01 2.2178292e-02 -2.9701642e+00 
-1.9652054e-01 2.7750415e-03 -3.0079250e+00 
3.5065063e-01 1.1760152e-02 -3.0845215e+00 
-3.4269934e-01 2.1918037e-02 -2.9781482e+00 
3.5226448e-01 1.1998950e-02 -3.0766860e+00 
-2.4696306e-01 8.1480581e-03 -3.0080263e+00 
-3.4393416e-01 2.1653680e-02 -2.9860377e+00 
3.5408320e-01 1.2233744e-02 -3.0690836e+00 
-3.4530158e-01 2.1387931e-02 -2.9937735e+00 
-2.9750253e-01 1.4215880e-02 -3.0081863e+00 
3.5593233e-01 1.2465214e-02 -3.0618923e+00 
-3.4681438e-01 2.1123640e-02 -3.0012694e+00 
3.0529238e-01 5.9019291e-03 -3.0616649e+00 
2.5500254e-01 1.0877947e-04 -3.0614488e+00 
2.0481481e-01 -4.7789756e-03 -3.0612412e+00 
1.5470235e-01 -8.6091441e-03 -3.0610441e+00 
-3.4830270e-01 2.0861559e-02 -3.0084039e+00 
1.0461982e-01 -1.1237283e-02 -3.0608615e+00 
5.4530093e-02 -1.2549467e-02 -3.0606991e+00 
4.4016462e-03 -1.2480227e-02 -3.0605634e+00 
-4.5791206e-02 -1.1023330e-02 -3.0604611e+00 
3.4474244e-01 1.0488814e-02 -3.1977449e+00 
3.4516714e-01 1.0684607e-02 -3.1896430e+00 
-9.6068719e-02 -8.2340064e-03 -3.0603982e+00 
3.4578371e-01 1.0883297e-02 -3.1814704e+00 
3.4657336e-01 1.1089270e-02 -3.1732115e+00 
3.4752885e-01 1.1303549e-02 -3.1648569e+00 
-3.3915638e-01 2.3140403e-02 -2.9779506e+00 
-3.3946875e-01 2.2945204e-02 -2.9864053e+00 
-1.4644626e-01 -4.2225648e-03 -3.0603804e+00 
-3.3996816e-01 2.2740362e-02 -2.9948478e+00 
3.4864390e-01 1.1525094e-02 -3.1564080e+00 
-3.4063538e-01 2.2524112e-02 -3.0032831e+00 
-3.4146161e-01 2.2296393e-02 -3.0117122e+00 
3.4991573e-01 1.1751054e-02 -3.1478824e+00 
-1.9693444e-01 8.5937654e-04 -3.0604124e+00 
-3.4243769e-01 2.2058388e-02 -3.0201297e+00 
3.5134662e-01 1.1977305e-02 -3.1393219e+00 
-3.4355579e-01 2.1812336e-02 -3.0285207e+00 
3.5294261e-01 1.2199259e-02 -3.1308037e+00 
-2.4754151e-01 6.8378363e-03 -3.0604985e+00 
-3.4480987e-01 2.1561260e-02 -3.0368553e+00 
-3.4619324e-01 2.1308447e-02 -3.0450822e+00 
3.5474048e-01 1.2413417e-02 -3.1224527e+00 
-2.9825132e-01 1.3538164e-02 -3.0606420e+00 
-3.4771929e-01 2.1057049e-02 -3.0531194e+00 
3.5657103e-01 1.2619488e-02 -3.1144565e+00 
3.0587984e-01 5.2171003e-03 -3.1142520e+00 
2.5554271e-01 -1.4157663e-03 -3.1140535e+00 
2.0530419e-01 -7.0938151e-03 -3.1138593e+00 
1.5513255e-01 -1.1608428e-02 -3.1136716e+00 
-3.4922133e-01 2.0807482e-02 -3.0608431e+00 
1.0497898e-01 -1.4761445e-02 -3.1134954e+00 
5.4804099e-02 -1.6396167e-02 -3.1133366e+00 
4.5754265e-03 -1.6421836e-02 -3.1132024e+00 
-4.5732548e-02 -1.4828286e-02 -3.1130997e+00 
-9.6139069e-02 -1.1688641e-02 -3.1130348e+00 
3.4537239e-01 1.0822669e-02 -3.2563420e+00 
3.4579393e-01 1.0994119e-02 -3.2477754e+00 
3.4641575e-01 1.1170232e-02 -3.2391462e+00 
3.4721319e-01 1.1355455e-02 -3.2304264e+00 
-3.3977258e-01 2.2899554e-02 -3.0262267e+00 
3.4817510e-01 1.1550753e-02 -3.2215929e+00 
-3.4011366e-01 2.2727705e-02 -3.0350166e+00 
-1.4665812e-01 -7.1498985e-03 -3.1130125e+00 
-3.4064574e-01 2.2544457e-02 -3.0437914e+00 
-3.4134666e-01 2.2347653e-02 -3.0525634e+00 
3.4929191e-01 1.1754872e-02 -3.2126314e+00 
-3.4220563e-01 2.2137117e-02 -3.0613422e+00 
3.5055796e-01 1.1964585e-02 -3.2035428e+00 
-1.9729897e-01 -1.4134205e-03 -3.1130375e+00 
-3.4321179e-01 2.1913955e-02 -3.0701319e+00 
3.5197345e-01 1.2174583e-02 -3.1943517e+00 
-3.4435604e-01 2.1680547e-02 -3.0789283e+00 
-2.4806849e-01 5.2910428e-03 -3.1131133e+00 
3.5354407e-01 1.2378303e-02 -3.1851196e+00 
-3.4563168e-01 2.1440358e-02 -3.0877135e+00 
-3.4703253e-01 2.1197396e-02 -3.0964482e+00 
3.5530900e-01 1.2569426e-02 -3.1759614e+00 
-2.9894922e-01 1.2733929e-02 -3.1132441e+00 
-3.4857366e-01 2.0955355e-02 -3.1050606e+00 
3.5710638e-01 1.2745905e-02 -3.1670668e+00 
3.0639044e-01 4.3726243e-03 -3.1668898e+00 
2.5602965e-01 -3.2577194e-03 -3.1667144e+00 
2.0576137e-01 -9.8905031e-03 -3.1665401e+00 
-3.5009322e-01 2.0714401e-02 -3.1134315e+00 
1.5554911e-01 -1.5240321e-02 -3.1663698e+00 
1.0534022e-01 -1.9036271e-02 -3.1662083e+00 
5.5093001e-02 -2.1063726e-02 -3.1660625e+00 
4.7740600e-03 -2.1197806e-02 -3.1659398e+00 
-4.5641359e-02 -1.9423639e-02 -3.1658476e+00 
-9.6170748e-02 -1.5839786e-02 -3.1657914e+00 
3.4591213e-01 1.1151673e-02 -3.3150489e+00 
3.4633735e-01 1.1297068e-02 -3.3060367e+00 
3.4697066e-01 1.1448890e-02 -3.2969706e+00 
3.4778108e-01 1.1610962e-02 -3.2878093e+00 
-3.4030378e-01 2.2629867e-02 -3.0746034e+00 
-3.4067904e-01 2.2482206e-02 -3.0837194e+00 
3.4875372e-01 1.1783893e-02 -3.2785146e+00 
-3.4124958e-01 2.2321213e-02 -3.0928169e+00 
-1.4682615e-01 -1.0644164e-02 -3.1657757e+00 
-3.4198986e-01 2.2144625e-02 -3.1019159e+00 
3.4987530e-01 1.1966852e-02 -3.2690545e+00 
-3.4288698e-01 2.1951958e-02 -3.1110350e+00 
3.5113643e-01 1.2156541e-02 -3.2594092e+00 
-3.4392828e-01 2.1743855e-02 -3.1201890e+00 
-1.9761534e-01 -4.1057316e-03 -3.1658031e+00 
-3.4510292e-01 2.1522220e-02 -3.1293863e+00 
3.5253359e-01 1.2347115e-02 -3.2495808e+00 
-2.4854471e-01 3.4718120e-03 -3.1658768e+00 
-3.4640304e-01 2.1290619e-02 -3.1386239e+00 
3.5407025e-01 1.2529591e-02 -3.2396067e+00 
-3.4782284e-01 2.1053800e-02 -3.1478796e+00 
3.5578693e-01 1.2693772e-02 -3.2295813e+00 
-2.9959660e-01 1.1787640e-02 -3.1660005e+00 
-3.4938005e-01 2.0816366e-02 -3.1570993e+00 
3.5753093e-01 1.2834633e-02 -3.2196840e+00 
3.0682028e-01 3.3347036e-03 -3.2195420e+00 
2.5646031e-01 -5.4845653e-03 -3.2193982e+00 
2.0618435e-01 -1.3274238e-02 -3.2192548e+00 
-3.5092035e-01 2.0578762e-02 -3.1661787e+00 
1.5595053e-01 -1.9646010e-02 -3.2191135e+00 
1.0570264e-01 -2.4231403e-02 -3.2189799e+00 
5.5395675e-02 -2.6737386e-02 -3.2188602e+00 
4.9956594e-03 -2.6992550e-02 -3.2187635e+00 
-4.5520734e-02 -2.4976174e-02 -3.2186966e+00 
-9.6167826e-02 -2.0823287e-02 -3.2186655e+00 
3.4635504e-01 1.1485131e-02 -3.3737967e+00 
3.4679421e-01 1.1602657e-02 -3.3643636e+00 
3.4744634e-01 1.1728036e-02 -3.3548848e+00 
3.4827540e-01 1.1862901e-02 -3.3453054e+00 
-3.4074644e-01 2.2325026e-02 -3.1231155e+00 
-3.4116313e-01 2.2202568e-02 -3.1325454e+00 
-1.4695440e-01 -1.4803497e-02 -3.2186715e+00 
-3.4177872e-01 2.2065053e-02 -3.1419535e+00 
3.4926333e-01 1.2007791e-02 -3.3355708e+00 
-3.4256437e-01 2.1910605e-02 -3.1513679e+00 
3.5039387e-01 1.2162243e-02 -3.3256294e+00 
-3.4350566e-01 2.1738435e-02 -3.1608165e+00 
-3.4458822e-01 2.1547777e-02 -3.1703257e+00 
-1.9788690e-01 -7.2786410e-03 -3.2187162e+00 
3.5165254e-01 1.2324813e-02 -3.3154378e+00 
-3.4579904e-01 2.1339145e-02 -3.1799177e+00 
3.5302995e-01 1.2489293e-02 -3.3049691e+00 
-2.4897156e-01 1.3495798e-03 -3.2187992e+00 
-3.4712791e-01 2.1115056e-02 -3.1896070e+00 
3.5452411e-01 1.2645198e-02 -3.2942280e+00 
-3.4856826e-01 2.0880757e-02 -3.1993935e+00 
3.5617340e-01 1.2776518e-02 -3.2832743e+00 
-3.0019354e-01 1.0689706e-02 -3.2189249e+00 
-3.5014128e-01 2.0642262e-02 -3.2092496e+00 
3.5783746e-01 1.2873540e-02 -3.2722593e+00 
3.0716388e-01 2.0647156e-03 -3.2721632e+00 
2.5683022e-01 -8.1729882e-03 -3.2720654e+00 
2.0656812e-01 -1.7365173e-02 -3.2719686e+00 
-3.5170285e-01 2.0401412e-02 -3.2190995e+00 
1.5633352e-01 -2.4988374e-02 -3.2718754e+00 
1.0606335e-01 -3.0544671e-02 -3.2717869e+00 
5.5709597e-02 -3.3634531e-02 -3.2717129e+00 
5.2361803e-03 -3.4021510e-02 -3.2716604e+00 
-4.5376700e-02 -3.1676373e-02 -3.2716405e+00 
-9.6137703e-02 -2.6786589e-02 -3.2716548e+00 
3.4669576e-01 1.1837193e-02 -3.4325173e+00 
3.4716230e-01 1.1925445e-02 -3.4226933e+00 
3.4784092e-01 1.2021765e-02 -3.4128299e+00 
-3.4109693e-01 2.1975888e-02 -3.1717975e+00 
3.4869310e-01 1.2124069e-02 -3.4028584e+00 
-3.4156441e-01 2.1879743e-02 -3.1815262e+00 
-3.4223169e-01 2.1767468e-02 -3.1912309e+00 
-1.4705097e-01 -1.9724519e-02 -3.2717056e+00 
3.4970077e-01 1.2231595e-02 -3.3927069e+00 
-3.4306833e-01 2.1638971e-02 -3.2009481e+00 
3.5084471e-01 1.2346473e-02 -3.3823030e+00 
-3.4405962e-01 2.1492731e-02 -3.2107155e+00 
-3.4519065e-01 2.1326103e-02 -3.2205711e+00 
-1.9811931e-01 -1.0981890e-02 -3.2717863e+00 
3.5210616e-01 1.2468472e-02 -3.3715766e+00 
-3.4644557e-01 2.1135838e-02 -3.2305521e+00 
3.5346559e-01 1.2595696e-02 -3.3604669e+00 
-2.4935253e-01 -1.0909708e-03 -3.2718964e+00 
-3.4780998e-01 2.0921967e-02 -3.2406920e+00 
3.5491036e-01 1.2714951e-02 -3.3489356e+00 
-3.4927386e-01 2.0688556e-02 -3.2510169e+00 
3.5647079e-01 1.2805188e-02 -3.3369915e+00 
-3.0073886e-01 9.4441276e-03 -3.2720352e+00 
-3.5086019e-01 2.0443597e-02 -3.2615346e+00 
3.5801832e-01 1.2847557e-02 -3.3247327e+00 
3.0741577e-01 5.1963710e-04 -3.3247000e+00 
2.5712941e-01 -1.1406510e-02 -3.3246674e+00 
-3.5243856e-01 2.0192501e-02 -3.2722148e+00 
2.0690550e-01 -2.2294244e-02 -3.3246446e+00 
1.5669001e-01 -3.1447547e-02 -3.3246221e+00 
1.0641856e-01 -3.8199574e-02 -3.3246073e+00 
5.6029968e-02 -4.2005039e-02 -3.3246001e+00 
5.4894964e-03 -4.2532768e-02 -3.3246203e+00 
-4.5218718e-02 -3.9737752e-02 -3.3246707e+00 
-9.6093564e-02 -3.3882589e-02 -3.3247631e+00 
3.4693216e-01 1.2227000e-02 -3.4911478e+00 
3.4744191e-01 1.2285539e-02 -3.4809680e+00 
3.4815289e-01 1.2350543e-02 -3.4707516e+00 
-3.4135291e-01 2.1569908e-02 -3.2206807e+00 
-3.4188229e-01 2.1500797e-02 -3.2306898e+00 
3.4903055e-01 1.2413550e-02 -3.4604154e+00 
-3.4260690e-01 2.1416094e-02 -3.2406755e+00 
-1.4712728e-01 -2.5490022e-02 -3.3248832e+00 
-3.4349784e-01 2.1319028e-02 -3.2506828e+00 
3.5005908e-01 1.2472819e-02 -3.4498701e+00 
-3.4454377e-01 2.1208475e-02 -3.2607595e+00 
3.5122199e-01 1.2529959e-02 -3.4390212e+00 
-3.4573030e-01 2.1077789e-02 -3.2709557e+00 
-1.9832427e-01 -1.5237743e-02 -3.3250300e+00 
3.5249258e-01 1.2592963e-02 -3.4277703e+00 
-3.4704000e-01 2.0919536e-02 -3.2813230e+00 
3.5384233e-01 1.2660171e-02 -3.4160177e+00 
-2.4969126e-01 -3.8340016e-03 -3.3251865e+00 
-3.4845112e-01 2.0726050e-02 -3.2919152e+00 
3.5523671e-01 1.2727505e-02 -3.4036726e+00 
-3.4994465e-01 2.0498654e-02 -3.3027864e+00 
-3.0123214e-01 8.0807936e-03 -3.3253562e+00 
3.5668535e-01 1.2762260e-02 -3.3906737e+00 
-3.5154074e-01 2.0245530e-02 -3.3139872e+00 
3.5807048e-01 1.2736798e-02 -3.3770343e+00 
3.0756446e-01 -1.3482473e-03 -3.3770877e+00 
2.5734730e-01 -1.5271420e-02 -3.3771539e+00 
-3.5312013e-01 1.9979709e-02 -3.3255502e+00 
2.0717683e-01 -2.8193857e-02 -3.3772334e+00 
1.5701367e-01 -3.9209080e-02 -3.3773256e+00 
1.0675779e-01 -4.7436019e-02 -3.3774078e+00 
5.6353220e-02 -5.2128013e-02 -3.3775100e+00 
5.7464500e-03 -5.2807884e-02 -3.3776250e+00 
-4.5062837e-02 -4.9395557e-02 -3.3777921e+00 
-9.6050755e-02 -4.2260508e-02 -3.3779866e+00 
3.4706879e-01 1.2677056e-02 -3.5496366e+00 
3.4763710e-01 1.2707487e-02 -3.5391415e+00 
3.4838272e-01 1.2740151e-02 -3.5286069e+00 
-3.4151545e-01 2.1091204e-02 -3.2697891e+00 
-3.4211851e-01 2.1048864e-02 -3.2800573e+00 
-3.4290278e-01 2.0993743e-02 -3.2903065e+00 
-1.4720697e-01 -3.2151019e-02 -3.3782241e+00 
3.4928300e-01 1.2758540e-02 -3.5179344e+00 
-3.4384761e-01 2.0935089e-02 -3.3005912e+00 
3.5033106e-01 1.2757353e-02 -3.5070169e+00 
-3.4494794e-01 2.0872325e-02 -3.3109699e+00 
3.5151122e-01 1.2739491e-02 -3.4957379e+00 
-1.9851224e-01 -2.0017957e-02 -3.3784595e+00 
-3.4619611e-01 2.0798125e-02 -3.3215046e+00 
3.5280312e-01 1.2709096e-02 -3.4839687e+00 
-3.4757180e-01 2.0694873e-02 -3.3322620e+00 
3.5415459e-01 1.2687868e-02 -3.4715675e+00 
-2.4999954e-01 -6.8100164e-03 -3.3786963e+00 
-3.4904701e-01 2.0548654e-02 -3.3433148e+00 
3.5551182e-01 1.2664745e-02 -3.4583815e+00 
-3.5058414e-01 2.0346234e-02 -3.3547452e+00 
-3.0166878e-01 6.6730781e-03 -3.3789136e+00 
3.5683374e-01 1.2624862e-02 -3.4442595e+00 
-3.5218615e-01 2.0096059e-02 -3.3666490e+00 
3.5799433e-01 1.2510238e-02 -3.4290909e+00 
3.0760058e-01 -3.5949205e-03 -3.4292603e+00 
2.5745186e-01 -1.9851933e-02 -3.4294607e+00 
-3.5373697e-01 1.9820766e-02 -3.3791353e+00 
2.0737506e-01 -3.5181258e-02 -3.4296961e+00 
1.5727019e-01 -4.8439177e-02 -3.4299261e+00 
1.0708554e-01 -5.8488107e-02 -3.4301808e+00 
5.6665175e-02 -6.4301239e-02 -3.4304026e+00 
5.9947570e-03 -6.5161296e-02 -3.4306912e+00 
-4.4922613e-02 -6.0904308e-02 -3.4309836e+00 
-9.6049010e-02 -5.2052145e-02 -3.4313633e+00 
3.4712015e-01 1.3209140e-02 -3.6079495e+00 
3.4775749e-01 1.3216146e-02 -3.5971855e+00 
-3.4159226e-01 2.0522500e-02 -3.3191359e+00 
3.4853359e-01 1.3218822e-02 -3.5863709e+00 
-3.4227846e-01 2.0504559e-02 -3.3296378e+00 
-3.4311954e-01 2.0479568e-02 -3.3401308e+00 
-1.4730009e-01 -3.9702870e-02 -3.4317242e+00 
3.4944891e-01 1.3191953e-02 -3.5753916e+00 
-3.4411097e-01 2.0464502e-02 -3.3506800e+00 
3.5050701e-01 1.3125482e-02 -3.5641228e+00 
-3.4526035e-01 2.0462606e-02 -3.3613549e+00 
3.5170245e-01 1.3015650e-02 -3.5524255e+00 
-3.4656619e-01 2.0465871e-02 -3.3722305e+00 
-1.9871724e-01 -2.5216741e-02 -3.4321087e+00 
3.5300657e-01 1.2868646e-02 -3.5401409e+00 
-3.4801995e-01 2.0459526e-02 -3.3833885e+00 
3.5439173e-01 1.2684900e-02 -3.5270818e+00 
-2.5028085e-01 -9.8710578e-03 -3.4324445e+00 
-3.4957885e-01 2.0404486e-02 -3.3949206e+00 
3.5573422e-01 1.2528140e-02 -3.5130246e+00 
-3.5118609e-01 2.0281446e-02 -3.4069343e+00 
-3.0205050e-01 5.3583704e-03 -3.4327373e+00 
3.5694145e-01 1.2346409e-02 -3.4977080e+00 
-3.5280065e-01 2.0072738e-02 -3.4195656e+00 
3.5780582e-01 1.2110536e-02 -3.4808506e+00 
3.0750245e-01 -6.2954504e-03 -3.4811695e+00 
-3.5426899e-01 1.9821068e-02 -3.4330018e+00 
2.5743608e-01 -2.5226222e-02 -3.4815228e+00 
2.0742933e-01 -4.3333643e-02 -3.4819470e+00 
1.5749030e-01 -5.9240775e-02 -3.4824103e+00 
1.0733329e-01 -7.1538290e-02 -3.4828172e+00 
5.6983876e-02 -7.8815972e-02 -3.4833413e+00 
6.2219423e-03 -7.9936027e-02 -3.4837497e+00 
-4.4862870e-02 -7.4529630e-02 -3.4843495e+00 
-9.6073667e-02 -6.3344731e-02 -3.4848490e+00 
3.4711354e-01 1.3836127e-02 -3.6660759e+00 
3.4781869e-01 1.3828659e-02 -3.6550961e+00 
-3.4160082e-01 1.9849647e-02 -3.3687193e+00 
-3.4237277e-01 1.9850630e-02 -3.3794248e+00 
3.4861441e-01 1.3809990e-02 -3.6440444e+00 
-1.4748132e-01 -4.8054784e-02 -3.4854614e+00 
-3.4326041e-01 1.9852385e-02 -3.3901387e+00 
3.4953211e-01 1.3748686e-02 -3.6327902e+00 
-3.4428491e-01 1.9880048e-02 -3.4009376e+00 
3.5058849e-01 1.3628121e-02 -3.6211918e+00 
-3.4546748e-01 1.9942849e-02 -3.4119031e+00 
3.5178100e-01 1.3432287e-02 -3.6090893e+00 
-1.9893199e-01 -3.0635403e-02 -3.4859741e+00 
-3.4682134e-01 2.0042007e-02 -3.4231235e+00 
3.5309605e-01 1.3147399e-02 -3.5962935e+00 
-3.4833817e-01 2.0164766e-02 -3.4346966e+00 
-2.5056713e-01 -1.2783537e-02 -3.4864520e+00 
3.5447339e-01 1.2775804e-02 -3.5825710e+00 
-3.5000758e-01 2.0294191e-02 -3.4467353e+00 
3.5589824e-01 1.2295899e-02 -3.5676217e+00 
-3.5171958e-01 2.0339600e-02 -3.4593722e+00 
-3.0237172e-01 4.3503068e-03 -3.4868512e+00 
3.5703484e-01 1.1905118e-02 -3.5510498e+00 
-3.5337410e-01 2.0287034e-02 -3.4727730e+00 
3.5753937e-01 1.1416658e-02 -3.5323507e+00 
-3.5469812e-01 2.0153607e-02 -3.4871812e+00 
3.0726282e-01 -9.5597342e-03 -3.5327785e+00 
2.5725459e-01 -3.1457465e-02 -3.5333174e+00 
2.0741446e-01 -5.2657580e-02 -3.5338450e+00 
1.5747196e-01 -7.1599447e-02 -3.5345498e+00 
1.0762958e-01 -8.6632977e-02 -3.5354600e+00 
5.7182899e-02 -9.5899678e-02 -3.5360590e+00 
6.3748647e-03 -9.7487616e-02 -3.5371290e+00 
-4.4790968e-02 -9.0516960e-02 -3.5376986e+00 
-9.6324820e-02 -7.6103136e-02 -3.5387002e+00 
-3.4157033e-01 1.9070274e-02 -3.4185193e+00 
3.4709131e-01 1.4546839e-02 -3.7240343e+00 
-3.4241748e-01 1.9080485e-02 -3.4293925e+00 
3.4784076e-01 1.4541185e-02 -3.7129003e+00 
-3.4333492e-01 1.9098760e-02 -3.4402996e+00 
-1.4765790e-01 -5.6985986e-02 -3.5393775e+00 
3.4864101e-01 1.4519652e-02 -3.7016590e+00 
-3.4437369e-01 1.9154737e-02 -3.4513302e+00 
3.4955050e-01 1.4456466e-02 -3.6901655e+00 
-3.4556929e-01 1.9266147e-02 -3.4625779e+00 
3.5059058e-01 1.4321917e-02 -3.6782646e+00 
-3.4694180e-01 1.9450509e-02 -3.4741439e+00 
-1.9921842e-01 -3.6035806e-02 -3.5400688e+00 
3.5176310e-01 1.4081750e-02 -3.6657779e+00 
-3.4850337e-01 1.9722566e-02 -3.4861432e+00 
3.5304875e-01 1.3694112e-02 -3.6524877e+00 
-2.5086764e-01 -1.5299237e-02 -3.5407114e+00 
-3.5022441e-01 2.0078931e-02 -3.4987118e+00 
3.5442451e-01 1.3117704e-02 -3.6381164e+00 
-3.5211355e-01 2.0524001e-02 -3.5120168e+00 
3.5574814e-01 1.2308781e-02 -3.6222920e+00 
-3.0266820e-01 3.9105336e-03 -3.5412599e+00 
-3.5386791e-01 2.0825896e-02 -3.5262614e+00 
3.5715231e-01 1.1151233e-02 -3.6044829e+00 
-3.5497437e-01 2.1075888e-02 -3.5416914e+00 
3.5726780e-01 1.0205206e-02 -3.5838635e+00 
3.0683139e-01 -1.3528712e-02 -3.5843235e+00 
2.5716213e-01 -3.8526499e-02 -3.5845577e+00 
2.0722614e-01 -6.3056256e-02 -3.5851855e+00 
1.5735358e-01 -8.5382225e-02 -3.5861537e+00 
1.0733200e-01 -1.0362300e-01 -3.5874801e+00 
5.7575234e-02 -1.1552921e-01 -3.5895858e+00 
6.5148411e-03 -1.1815095e-01 -3.5899695e+00 
-4.5267083e-02 -1.0895549e-01 -3.5921095e+00 
-9.6386882e-02 -8.9898826e-02 -3.5927371e+00 
-3.4154148e-01 1.8207480e-02 -3.4684948e+00 
-3.4243225e-01 1.8211223e-02 -3.4794919e+00 
3.4708532e-01 1.5297755e-02 -3.7818829e+00 
3.4784673e-01 1.5303954e-02 -3.7706609e+00 
-1.4792670e-01 -6.6140921e-02 -3.5935564e+00 
-3.4336038e-01 1.8225811e-02 -3.4905598e+00 
3.4865056e-01 1.5327272e-02 -3.7592780e+00 
-3.4439760e-01 1.8273308e-02 -3.5018000e+00 
3.4954776e-01 1.5334974e-02 -3.7475853e+00 
-3.4558457e-01 1.8384056e-02 -3.5133154e+00 
3.5056365e-01 1.5274586e-02 -3.7354203e+00 
-3.4694659e-01 1.8596602e-02 -3.5252189e+00 
-1.9954440e-01 -4.1369543e-02 -3.5943709e+00 
3.5169762e-01 1.5089173e-02 -3.7225895e+00 
-3.4849309e-01 1.8962566e-02 -3.5376418e+00 
3.5293776e-01 1.4722002e-02 -3.7088506e+00 
-2.5128497e-01 -1.7471127e-02 -3.5952217e+00 
-3.5023359e-01 1.9541256e-02 -3.5507427e+00 
3.5422017e-01 1.4065231e-02 -3.6938875e+00 
-3.5207215e-01 2.0404264e-02 -3.5647221e+00 
3.5555897e-01 1.3078456e-02 -3.6772694e+00 
-3.0291822e-01 4.2154679e-03 -3.5959532e+00 
-3.5413597e-01 2.1722333e-02 -3.5798469e+00 
3.5654703e-01 1.1468556e-02 -3.6583807e+00 
-3.5511052e-01 2.2852899e-02 -3.5965018e+00 
3.5701574e-01 7.9981581e-03 -3.6362591e+00 
3.0694598e-01 -1.7971410e-02 -3.6347453e+00 
2.5693114e-01 -4.6157346e-02 -3.6349516e+00 
2.0703147e-01 -7.4322159e-02 -3.6356314e+00 
1.5699361e-01 -1.0043498e-01 -3.6367350e+00 
1.0701683e-01 -1.2238511e-01 -3.6383715e+00 
5.6857024e-02 -1.3755979e-01 -3.6405353e+00 
6.0893726e-03 -1.4162284e-01 -3.6473029e+00 
-4.4967712e-02 -1.2873685e-01 -3.6458942e+00 
-1.3579477e-02 -1.6201107e-01 -3.6767064e+00 
-9.6598336e-02 -1.0371714e-01 -3.6464231e+00 
-6.2072825e-02 -1.2938846e-01 -3.6744201e+00 
-2.7975928e-02 -1.7345105e-01 -3.7146966e+00 
-3.4153571e-01 1.7310867e-02 -3.5185768e+00 
-3.4243615e-01 1.7305010e-02 -3.5296487e+00 
-3.4337249e-01 1.7274769e-02 -3.5408435e+00 
-1.4830928e-01 -7.5435333e-02 -3.6474731e+00 
-1.1047313e-01 -1.0196137e-01 -3.6769343e+00 
-3.4440351e-01 1.7240874e-02 -3.5522670e+00 
-7.5364701e-02 -1.3324841e-01 -3.7105910e+00 
-3.4557238e-01 1.7252228e-02 -3.5640267e+00 
-4.0114641e-02 -1.6679977e-01 -3.7359402e+00 
-3.4690134e-01 1.7368287e-02 -3.5762450e+00 
-2.0001071e-01 -4.7130899e-02 -3.6488493e+00 
-1.5901331e-01 -7.2987742e-02 -3.6790848e+00 
-1.2234393e-01 -9.8367425e-02 -3.7116272e+00 
-3.4840506e-01 1.7657113e-02 -3.5890669e+00 
-8.6448796e-02 -1.3375138e-01 -3.7578836e+00 
-2.0756735e-01 -4.5855209e-02 -3.6796558e+00 
-2.5172379e-01 -2.0208533e-02 -3.6497737e+00 
-1.6911083e-01 -7.1631462e-02 -3.7124728e+00 
-5.1341993e-02 -3.0449111e-01 -3.9499059e+00 
-3.5005618e-01 1.8247604e-02 -3.6026711e+00 
-1.3239725e-01 -9.9440011e-02 -3.7511888e+00 
-3.5188251e-01 1.9251279e-02 -3.6172806e+00 
-9.6846936e-02 -1.2020803e-01 -3.7866616e+00 
-2.5617044e-01 -1.9616522e-02 -3.6798747e+00 
-2.1610550e-01 -4.4776734e-02 -3.7118247e+00 
-3.0326665e-01 4.5449441e-03 -3.6504089e+00 
-1.7835331e-01 -7.1056549e-02 -3.7466499e+00 
-3.5360850e-01 2.1000274e-02 -3.6331664e+00 
-1.4208339e-01 -1.0263085e-01 -3.7876922e+00 
-2.6273383e-01 -1.9283108e-02 -3.7108866e+00 
-3.0562441e-01 5.6220296e-03 -3.6788432e+00 
-2.2436001e-01 -4.5035655e-02 -3.7438463e+00 
-3.5455069e-01 2.5312636e-02 -3.6506588e+00 
-1.8713418e-01 -7.2858528e-02 -3.7774502e+00 
-3.1054822e-01 7.5088801e-03 -3.7105957e+00 
-2.7045585e-01 -1.8820445e-02 -3.7422672e+00 
-2.3230799e-01 -4.5728800e-02 -3.7726014e+00 
-3.5485449e-01 3.4481786e-02 -3.6802798e+00 
-3.1729696e-01 8.4114548e-03 -3.7410760e+00 
-2.7792401e-01 -1.9126387e-02 -3.7706176e+00 
-3.5864307e-01 3.6835739e-02 -3.7107535e+00 
-3.2414219e-01 8.5444199e-03 -3.7702439e+00 
-3.6430554e-01 3.7134014e-02 -3.7411186e+00 
-3.7083317e-01 3.7090160e-02 -3.7702808e+00 
REACTION 3 3567  float
-1.9303115e+03 6.2978886e+02 -1.9819595e+02 
-3.2515645e+03 5.5910656e+02 2.6937360e+01 
3.0415145e+00 1.6528556e+00 -1.8426872e+00 
-2.7194957e+00 -1.5936431e+00 -2.4698024e+01 
-3.0566064e+03 4.2786107e+02 4.1011925e+01 
8.6746188e-01 1.2827897e+00 -6.2301863e-01 
-2.3808883e+00 -1.2219008e+00 -1.7261526e+01 
-2.5712359e+00 -2.6399318e-01 -1.9738161e+01 
-3.6152526e+00 -3.7907586e-01 -2.2902195e+01 
-3.2037206e+03 3.4910388e+02 3.4794437e+01 
-1.7064659e+00 2.0760105e+00 4.9897686e-01 
-3.4499781e+00 -1.7267340e-02 -1.6796423e+01 
-3.3032310e+00 -6.1630378e-01 -2.2033622e+01 
-4.0971936e+00 3.9038761e-01 -1.8456451e+01 
-4.5642839e+00 4.7575226e-01 -2.4673942e+01 
-3.9664028e+03 5.2296070e+02 1.5672821e+02 
-3.3632635e+00 3.4505547e+00 1.9028077e+00 
-4.0487876e+00 4.6094325e-01 -1.5324917e+01 
-7.0351920e+00 7.9623214e-01 -3.8425554e+01 
-4.4782008e+00 9.8647577e-01 -2.0461579e+01 
-4.6778359e+00 3.0287731e+00 -2.5413611e+01 
-4.3055361e+00 6.7240119e-01 -1.6104052e+01 
-5.0420127e+03 1.0668978e+03 2.7374832e+00 
-4.5456273e+00 4.9049542e+00 2.1219825e+00 
-4.2414291e+00 1.6721769e+00 -1.7145606e+01 
-4.3436021e+00 9.3820500e-01 -1.5413770e+01 
2.9709144e+00 2.2090159e+01 -2.4600829e+01 
-4.3585113e+00 5.6732322e-01 -1.3706432e+01 
-2.3512297e+00 4.1123046e+00 -2.2066614e+01 
-4.4034818e+00 6.8712258e-01 -1.3848157e+01 
-4.0802649e+00 1.1721447e+00 -1.5163495e+01 
-3.1706348e+00 2.1331307e+00 -1.5318456e+01 
-4.3099628e+00 7.8101869e-01 -1.3603155e+01 
-1.7372058e+01 -1.5596653e+01 4.6010021e+01 
-5.4510837e+00 6.3739918e+00 3.0184994e+00 
2.0618542e+01 -2.2271868e+00 -6.2342743e+01 
-4.5447510e+00 5.2914101e-01 -1.2900647e+01 
6.6036781e-01 2.3056298e+00 -1.9133323e+00 
-4.4824415e+00 5.8553176e-01 -1.2504840e+01 
-3.3991068e+00 1.0965260e+00 -9.4321378e+00 
-4.0176632e+00 7.8901268e-01 -1.1399224e+01 
-1.7044491e+00 9.5403870e-01 -5.3633978e+00 
-4.3314698e+00 5.9045886e-01 -1.1703814e+01 
-1.1450182e+01 -4.8147105e+00 -3.3115748e+00 
-6.1915085e+00 7.8176082e+00 3.4518032e+00 
-3.5844611e+00 6.5136414e-01 -1.0565425e+01 
3.7757913e+00 -9.2763030e+00 5.4393959e+01 
-4.6789710e+00 4.1809405e-01 -1.2016607e+01 
-2.6846277e+00 6.6766794e-01 -8.3781118e+00 
-4.0815753e+00 5.2002401e-01 -1.1033610e+01 
1.9301140e+00 -9.3165994e-01 2.1237346e-01 
-4.5725240e+00 4.4589560e-01 -1.1559875e+01 
-1.2843824e+00 -4.3716356e-03 -4.6303423e-01 
-4.4176712e+00 4.1135057e-01 -1.1037833e+01 
-3.0582097e+00 3.3797668e-01 -7.3476496e+00 
-3.7399276e+00 3.5968816e-01 -9.3418158e+00 
-1.0490121e+01 4.1037726e+00 -6.1070598e+00 
-6.8279221e+00 9.2587359e+00 3.7675866e+00 
3.1071600e+00 6.4872816e+00 6.7090699e+01 
-2.0624067e+00 6.4348493e-02 -4.3971541e+00 
-4.8002406e+00 2.9644757e-01 -1.1345820e+01 
-4.2004989e+00 3.1539260e-01 -1.0206340e+01 
-4.6886110e+00 3.0647230e-01 -1.0986252e+01 
1.5735389e+00 -2.0241247e-01 1.1514289e+01 
-3.3812273e+00 1.2265999e-01 -8.6932088e+00 
-4.5473798e+00 2.5849763e-01 -1.0487826e+01 
-9.0046012e-01 -3.7715975e-01 -2.1346427e+00 
-2.6339010e+00 -3.6943595e-02 -6.8036410e+00 
-3.9465993e+00 1.6416012e-01 -9.6250431e+00 
-4.3731849e+00 1.6222407e-01 -1.0049771e+01 
-1.7688287e+00 -4.2018770e-01 -3.1545188e+00 
-1.4083011e+01 1.5987769e+01 8.5513786e+01 
-7.3901561e+00 1.0710746e+01 3.8644367e+00 
2.0777721e+01 1.2383053e+00 -4.8361962e+01 
-4.9323668e+00 1.8488601e-01 -1.0819518e+01 
-1.6763610e-01 -1.9406600e+00 5.4319822e+00 
-3.0724349e+00 -1.2963660e-01 -7.9865146e+00 
-3.6886999e+00 -1.8385353e-02 -8.9438947e+00 
-4.8313418e+00 1.8545286e-01 -1.0547130e+01 
-4.1829051e+00 3.3246978e-02 -9.5780167e+00 
-2.3773848e+00 -3.4393706e-01 -7.3040265e+00 
-1.2975622e+00 -9.7429055e-01 1.6673244e-01 
-4.7145210e+00 1.3655571e-01 -1.0219014e+01 
-2.0126519e+00 -5.3195211e-01 -8.7627932e+00 
-4.5793968e+00 5.1843735e-02 -9.8939456e+00 
-3.4704312e+00 -1.8449272e-01 -8.8348994e+00 
-6.0352953e+03 -1.8312388e+03 1.0460610e+03 
-7.8973076e+00 1.2190813e+01 3.8021641e+00 
-2.8706695e+00 -3.0126812e-01 -8.1858941e+00 
-4.0012699e+00 -1.0313516e-01 -9.3299723e+00 
-5.0832864e+00 9.3013235e-02 -1.0401593e+01 
-4.4263249e+03 -1.1087966e+02 -9.4538833e+01 
3.1054913e+00 -2.8481174e+01 -2.6265184e+01 
-1.4194897e+01 7.6232567e+00 -3.1362800e+00 
-4.9998214e+00 8.8535217e-02 -1.0247184e+01 
-2.7712849e+03 -4.2976771e+01 1.1959703e+02 
9.4381199e+00 -1.0923247e+01 -1.3976345e+01 
-6.3086844e+00 3.9532394e+00 1.8839740e+00 
-4.9721817e+00 7.3968049e+00 -7.8147024e+00 
-4.4413700e+00 -5.1107066e-02 -9.6542980e+00 
-2.3618669e+00 -3.4521257e-01 -8.0448121e+00 
-6.6925496e+00 4.4263174e+00 -2.2111203e+00 
-2.0769162e+03 -3.5513864e+01 1.2686291e+02 
7.9914103e+00 -1.5236353e+01 -1.0429595e+00 
-4.9084638e+00 4.4957551e-02 -1.0014295e+01 
-3.5982389e+00 2.3655641e+00 1.3741860e+00 
-3.4470315e+00 2.2704600e+00 -3.8039631e+00 
-3.8519462e+00 -2.0955215e-01 -9.2940446e+00 
-4.9716095e+00 6.6463767e-01 -1.6459353e-01 
-4.9041429e+00 1.1254094e+00 -2.7387184e+00 
-3.3300907e+00 -2.6994693e-01 -9.1142945e+00 
-1.5088487e+03 -2.1477068e+01 1.3928554e+02 
7.6585122e+00 -1.4390058e+01 1.0828982e+01 
-4.8082495e+00 -2.3983932e-02 -9.8211181e+00 
-2.7702502e+00 -2.4842651e-01 -9.9349750e+00 
-2.6262558e+00 1.1337070e+00 9.8196086e-01 
-3.2211426e+00 -5.3664528e-01 -2.0242706e+00 
-4.3163502e+00 -1.4850539e-01 -9.5145918e+00 
-5.0842980e+00 -6.2057354e-02 -1.1723928e+00 
-3.9287878e+00 1.2168304e-01 1.8806157e-01 
-4.4602890e+00 -8.4671376e-01 -1.9629172e+00 
-8.3617084e+00 1.3712399e+01 3.6318093e+00 
-5.2547000e+00 2.2141816e-02 -1.0091919e+01 
-5.1891429e+00 1.5661939e-02 -1.0013807e+01 
-1.0228009e+03 -1.2864347e+01 1.3217239e+02 
7.1511017e+00 -1.2358092e+01 1.7851349e+01 
-4.7112126e+00 -1.0135215e-01 -9.6793153e+00 
-4.6478288e+00 -8.3295254e-01 -4.0294169e-01 
-4.9158513e+00 -1.1897380e+00 -1.1851555e+00 
-2.1231458e+00 3.8469367e-01 6.3998051e-01 
-3.7286579e+00 -1.9470401e+00 -7.9158791e-01 
-3.7592365e+00 -2.3836548e-01 -9.4304022e+00 
-3.3702153e+00 -3.9805099e-01 2.1400366e-01 
-4.5477589e+00 -1.6876016e+00 -1.1817336e+00 
-5.1214009e+00 -2.0041686e-02 -9.8709409e+00 
-3.1897471e+00 -2.0043712e-01 -1.0056167e+01 
-4.2170616e+00 -2.1121411e-01 -9.5442723e+00 
-5.0057109e+00 -1.3335982e+00 -6.9721581e-01 
-4.2649323e+00 -1.0144530e+00 -1.5432618e-01 
-5.0778981e+00 -1.7240094e+00 -9.1015616e-01 
-4.6279937e+00 -1.6670319e-01 -9.6217991e+00 
-5.7038212e+02 -6.9508356e+00 1.2809450e+02 
6.8894822e+00 -1.0670341e+01 2.6056932e+01 
-5.0500500e+00 -7.2613985e-02 -9.7548597e+00 
-1.8717737e+00 -9.1006803e-02 3.4284993e-01 
-4.5866108e+00 -1.8360343e+00 -1.9198702e-01 
-3.0407501e+00 -6.6814074e-01 1.2166544e-01 
-4.9942218e+00 -1.8590230e+00 -5.2955820e-01 
-4.8824469e+00 -1.4147066e+00 -3.7271134e-01 
-5.2937492e+00 -1.6138206e+00 -6.5002439e-01 
-8.7929559e+00 1.5286268e+01 3.3807113e+00 
-4.0154369e+00 -1.1623280e+00 -8.4651331e-02 
-5.4260310e+00 -1.7751081e+00 -5.7106695e-01 
-3.6151410e+00 -1.6781923e-01 -1.0422255e+01 
-5.4434975e+00 -2.9666820e-02 -9.8529942e+00 
-4.1629040e+00 -2.0535520e-01 -9.6310655e+00 
-4.9845370e+00 -1.2719738e-01 -9.6827690e+00 
-5.3940951e+00 -3.6058881e-02 -9.8377188e+00 
-4.5653167e+00 -1.9805314e-01 -9.6758152e+00 
-1.3735264e+02 -2.3580547e+00 1.2656593e+02 
6.8527221e+00 -9.5787222e+00 3.3494932e+01 
-1.7526330e+00 -3.3994713e-01 6.9889591e-02 
-5.4414989e+00 -1.4301364e+00 5.8533465e-02 
-5.3658718e+00 -1.5536486e+00 -4.4407206e-01 
-4.7526757e+00 -1.4355744e+00 -2.3459203e-01 
-5.6808580e+00 -1.6534906e+00 -4.9140533e-01 
-2.8775326e+00 -8.6428362e-01 -1.2005838e-02 
-5.6150673e+00 -1.6333880e+00 -9.0762727e-02 
-5.3462473e+00 -6.3220936e-02 -9.7534586e+00 
-4.9319169e+00 -1.6708311e-01 -9.6678674e+00 
-3.8678588e+00 -1.2997547e+00 -1.0203115e-01 
-5.9161296e+00 -1.5977343e+00 -2.6734482e-01 
-5.2978030e+00 -1.0068672e-01 -9.6934426e+00 
-5.3491845e+00 -1.5093036e+00 -2.9632497e-01 
-5.8089528e+00 -1.5230886e+00 -3.8522999e-01 
-4.0228958e+00 -1.4007610e-01 -1.0561498e+01 
2.8701401e+02 2.3258896e+00 1.3007434e+02 
6.9965599e+00 -9.1159575e+00 4.1289259e+01 
-4.5388363e+00 -1.7086012e-01 -9.7000032e+00 
-4.6641204e+00 -1.5213052e+00 -1.7497076e-01 
-1.7325861e+00 -3.8344248e-01 -1.9110198e-01 
-6.1312713e+00 -1.5137862e+00 -3.0371734e-01 
-6.2740760e+00 -9.4590429e-01 1.2263866e-01 
-2.8317199e+00 -1.0065041e+00 -1.5638813e-01 
-6.2764504e+00 -1.3212875e+00 1.8997446e-01 
-5.2559392e+00 -1.3611103e-01 -9.6643267e+00 
-9.1983880e+00 1.6920305e+01 3.0789835e+00 
-4.8949823e+00 -1.7611162e-01 -9.7290326e+00 
-5.6452702e+00 -6.5415913e-02 -9.6714611e+00 
-5.8687177e+00 -1.4505578e+00 -2.9078153e-01 
-6.4772116e+00 -1.3217949e+00 -4.3996117e-02 
-3.8169455e+00 -1.4979676e+00 -1.5121042e-01 
-5.6092804e+00 -7.0442394e-02 -9.6971851e+00 
-5.3196834e+00 -1.5404467e+00 -2.1360419e-01 
-6.2751194e+00 -1.4076135e+00 -2.7996901e-01 
-5.5773794e+00 -8.9395001e-02 -9.6549548e+00 
-4.6226797e+00 -1.7072584e+00 -1.5503580e-01 
-6.6363327e+00 -1.3138823e+00 -1.3193136e-01 
-5.2251611e+00 -1.5633438e-01 -9.6733226e+00 
7.0978593e+02 8.7549357e+00 1.3843409e+02 
7.2971695e+00 -9.2019647e+00 4.9289865e+01 
-4.4061069e+00 -1.1397353e-01 -1.0695383e+01 
-1.8043940e+00 -2.1326916e-01 -4.4894200e-01 
-7.0407995e+00 -5.3455197e-01 7.3982311e-02 
-4.8880978e+00 -1.3636823e-01 -9.7214702e+00 
-5.5464530e+00 -1.1378614e-01 -9.6316495e+00 
-5.8853682e+00 -1.4343992e+00 -2.1452278e-01 
-2.8938329e+00 -1.1565374e+00 -2.9255571e-01 
-6.3580952e+00 -1.3204772e+00 -2.3460047e-01 
-6.9405068e+00 -1.0333007e+00 3.5680991e-01 
-6.7605211e+00 -1.2406799e+00 -1.6380258e-01 
-5.2996872e+00 -1.6672077e+00 -1.6125677e-01 
-3.8484259e+00 -1.8239917e+00 -1.9689359e-01 
-7.0617987e+00 -1.0486548e+00 1.1002786e-01 
-5.2061229e+00 -1.4979685e-01 -9.7408143e+00 
-5.5218668e+00 -1.3372641e-01 -9.6300408e+00 
1.9217851e+03 -6.3180934e+02 -1.6528784e+02 
-9.5838067e+00 1.8619726e+01 2.7412736e+00 
3.1222314e+03 -5.6398083e+02 3.5598686e+01 
3.6024746e+00 2.7410903e+00 1.6308009e+00 
-4.6283053e+00 -2.0299645e+00 -1.4106967e-01 
-7.1690340e+00 -1.1005523e+00 2.7807045e-03 
-5.8553125e+00 -8.8353697e-02 -9.5284497e+00 
-6.4038440e+00 -1.2795314e+00 -1.8798546e-01 
-3.0316753e+00 -1.5685362e+00 2.1960100e+01 
2.7441995e+03 -4.4037843e+02 5.2173444e+01 
2.4066781e+00 2.3255268e+00 -8.8880236e-01 
1.1383375e+03 2.0054006e+01 1.5159172e+02 
7.7093292e+00 -9.7394339e+00 5.7642294e+01 
-5.8869500e+00 -1.4935657e+00 -1.6023662e-01 
-6.8474251e+00 -1.1720684e+00 -1.5997071e-01 
-5.8300040e+00 -9.1285489e-02 -9.5832265e+00 
-7.7458492e+00 -2.1565667e-01 -3.1450083e-02 
-2.2097288e+00 1.7202639e-01 1.5685802e+01 
-1.6004743e+00 -1.6111859e+00 1.6316095e+01 
-1.9920326e+00 1.9590730e-01 -7.1036977e-01 
-4.7620643e+00 -8.8665200e-02 -1.0788980e+01 
-7.5795127e+00 -8.0424018e-01 4.4649009e-01 
-2.5198520e+00 -6.1412263e-01 2.0630696e+01 
-3.0689222e+00 -1.4338033e+00 -3.9874884e-01 
2.6701682e+03 -3.4922975e+02 4.6249149e+01 
1.1220582e-01 2.5005437e+00 -3.6477668e+00 
-5.5064315e+00 -1.3913611e-01 -9.6545846e+00 
-5.8103737e+00 -1.0285691e-01 -9.5683273e+00 
-2.0034112e+00 1.9358181e-01 1.6691874e+01 
-2.4909335e+00 -4.7846731e-01 1.6515229e+01 
-5.2923469e+00 -1.8921001e+00 -1.1996252e-01 
-7.2648607e+00 -1.0682203e+00 -5.7437574e-02 
-5.2124612e+00 -1.0297252e-01 -9.7076072e+00 
-2.8395016e+00 -8.7859229e-02 1.6804678e+01 
-3.0313229e+00 -1.0721173e-01 1.5974476e+01 
-3.9559081e+00 -2.3879391e+00 -2.0796956e-01 
-7.6461138e+00 -8.1434555e-01 2.0648622e-01 
2.6426529e+03 -2.8369594e+02 4.6185915e+01 
-1.6460050e+00 3.4443377e+00 -6.0568264e+00 
-5.7924538e+00 -1.1638413e-01 -9.5694525e+00 
-6.9021962e+00 -1.1134301e+00 -1.4176266e-01 
-2.1017615e+00 1.9067064e-01 1.7465346e+01 
-3.2459834e+00 4.7078015e-02 1.4366618e+01 
-6.4228229e+00 -1.2757477e+00 -1.4727821e-01 
-3.4303139e+00 1.5021368e-01 1.7521950e+01 
-3.1445664e+00 1.0828578e-01 1.7175047e+01 
-3.5568153e+00 1.9719168e-01 1.5212596e+01 
-4.6660122e+00 -2.5174940e+00 -1.0089877e-01 
-7.7099905e+00 -9.0613612e-01 1.0162254e-01 
-5.8794899e+00 -1.5939610e+00 -1.1861736e-01 
-7.3404859e+00 -1.0191820e+00 -8.2056996e-02 
-5.4995166e+00 -1.2193791e-01 -9.7251001e+00 
2.6476312e+03 -2.2094551e+02 5.1968968e+01 
-3.0832689e+00 4.6559820e+00 -6.9746233e+00 
1.5850650e+03 4.4044696e+01 1.6555642e+02 
8.2038408e+00 -1.0643110e+01 6.6340331e+01 
-3.7123521e+00 3.5808830e-01 1.5623160e+01 
-3.8003612e+00 3.5482351e-01 1.4522546e+01 
-5.7802139e+00 -1.2416271e-01 -9.5858089e+00 
-8.3918577e+00 2.2621845e-02 -1.6671533e-01 
-2.3408292e+00 1.7335312e-01 1.8851503e+01 
-3.7727445e+00 2.5688359e-01 1.2848647e+01 
-2.3549649e+00 8.4382069e-01 -9.8233181e-01 
-8.1858033e+00 -6.3465819e-01 4.8643429e-01 
-9.9536416e+00 2.0387560e+01 2.3793941e+00 
-3.4997641e+00 2.6380788e-01 1.7186362e+01 
-3.9364917e+00 3.5733808e-01 1.3241736e+01 
-3.3963316e+00 -2.1285908e+00 -4.3576697e-01 
-5.2846477e+00 -2.1651519e+00 -7.6551720e-02 
-7.7774764e+00 -9.0395646e-01 2.9806912e-02 
-5.0921430e+00 -6.4199308e-02 -1.0864071e+01 
-6.0694472e+00 -1.0143154e-01 -9.4130806e+00 
-3.9551920e+00 4.7766868e-01 1.4682969e+01 
-6.9339556e+00 -1.0689158e+00 -1.2176757e-01 
-6.0523644e+00 -1.0196261e-01 -9.4872795e+00 
-8.2149147e+00 -6.2545943e-01 2.6093494e-01 
-7.3959416e+00 -9.5881025e-01 -8.7127944e-02 
-3.9263137e+00 5.0250342e-01 1.5352324e+01 
-4.0384210e+00 4.4405017e-01 1.3397914e+01 
-4.1223967e+00 -3.2225671e+00 -1.1358045e-01 
-6.4248554e+00 -1.2790796e+00 -1.1804615e-01 
2.6741595e+03 -1.6396997e+02 6.7082634e+01 
-4.2969806e+00 6.0768945e+00 -7.7753963e+00 
-5.7753142e+00 -1.1862952e-01 -9.6197678e+00 
-2.7282453e+00 1.7605047e-01 2.0560700e+01 
-4.1315880e+00 3.3572849e-01 1.1743171e+01 
-5.5145574e+00 -7.1434939e-02 -9.6750988e+00 
-6.0418960e+00 -1.0716558e-01 -9.4903454e+00 
-3.8653207e+00 4.2764112e-01 1.7509646e+01 
-4.1882896e+00 3.9994488e-01 1.2005436e+01 
-7.8376678e+00 -8.7576196e-01 -9.9171282e-03 
-5.8598630e+00 -1.6857438e+00 -8.8258367e-02 
-8.2462399e+00 -7.3959260e-01 1.6894382e-01 
-3.9925833e+00 5.5393617e-01 1.3467461e+01 
-4.0601805e+00 4.9220518e-01 1.2784168e+01 
-4.6955694e+00 -2.9868631e+00 -7.5370881e-03 
-4.0140159e+00 6.1834743e-01 1.4519873e+01 
-4.1932915e+00 4.3593580e-01 1.2008734e+01 
-6.0333839e+00 -1.1191874e-01 -9.5073030e+00 
2.0734708e+03 1.1079376e+02 1.7390431e+02 
8.7563048e+00 -1.1841332e+01 7.5384748e+01 
2.7291786e+03 -1.1137636e+02 1.0235708e+02 
-5.3184553e+00 7.5939908e+00 -8.1735399e+00 
-3.0739583e+00 1.2485163e+00 -1.3170114e+00 
-6.9475503e+00 -1.0038273e+00 -1.0755928e-01 
-7.4334644e+00 -8.8845665e-01 -8.4830688e-02 
-8.9858452e+00 2.0047915e-01 -3.1378474e-01 
-5.7764629e+00 -9.4277796e-02 -9.6931661e+00 
-8.2891425e+00 -7.5646569e-01 9.7567300e-02 
-3.2954487e+00 2.0506346e-01 2.2801718e+01 
-3.9668289e+00 4.8002561e-01 1.2473306e+01 
-4.3705456e+00 3.2751818e-01 1.0860194e+01 
-5.2565260e+00 -2.2940459e+00 -1.7297335e-02 
-3.8588308e+00 5.5361566e-01 1.2880163e+01 
-4.1252515e+00 4.2519330e-01 1.1887550e+01 
-3.8830224e+00 -3.3640410e+00 -2.5641197e-01 
-8.7563408e+00 -5.1196892e-01 4.9497652e-01 
-7.8873906e+00 -8.1826016e-01 -3.0196446e-02 
-4.1418294e+00 5.9841383e-01 1.7146009e+01 
-4.3639213e+00 3.6922824e-01 1.1071498e+01 
-6.4109928e+00 -1.2417792e+00 -1.0420445e-01 
-6.0297596e+00 -1.1034418e-01 -9.5351128e+00 
-5.3989538e+00 -4.0852592e-02 -1.0919631e+01 
-4.2266086e+00 -3.9973017e+00 1.0754337e-01 
-8.7611091e+00 -4.7680740e-01 2.8597764e-01 
-3.8484489e+00 6.5711952e-01 1.4045091e+01 
-4.3106995e+00 3.7039947e-01 1.1142458e+01 
-1.0311214e+01 2.2225066e+01 1.9999804e+00 
-8.3335703e+00 -7.4413153e-01 5.2411478e-02 
-3.7372900e+00 3.8719561e-01 1.1731226e+01 
-3.9726090e+00 3.5288042e-01 1.1468682e+01 
-5.8191242e+00 -1.5815394e+00 -6.2808052e-02 
-6.2842113e+00 -1.0719257e-01 -9.3164476e+00 
-6.2733049e+00 -1.0527979e-01 -9.4040672e+00 
2.8286019e+03 -6.1166350e+01 2.0465975e+02 
-6.1895033e+00 9.1624918e+00 -8.4549912e+00 
-4.6314697e+00 -3.2170283e+00 9.9796816e-02 
-8.7688695e+00 -6.0052355e-01 2.1182904e-01 
-5.7970010e+00 -4.2167222e-02 -9.6291288e+00 
-6.0319383e+00 -9.6860875e-02 -9.5751087e+00 
-3.9674924e+00 1.6510769e-01 2.4285450e+01 
-3.4991925e+00 4.4675729e-01 1.2132763e+01 
-4.2027234e+00 3.2247281e-01 1.1061944e+01 
-4.5426182e+00 2.7718879e-01 1.0261632e+01 
-7.4575785e+00 -7.8442764e-01 -8.4288091e-02 
-4.0874704e+00 6.9950725e-01 1.7415909e+01 
-4.5020309e+00 3.0101368e-01 1.0406154e+01 
-6.9476552e+00 -8.9263994e-01 -1.0814696e-01 
-7.9267501e+00 -7.3725990e-01 -4.0589044e-02 
-6.2694873e+00 -1.0514120e-01 -9.4184830e+00 
-3.7300737e+00 2.1402537e-01 1.1230944e+01 
2.7332820e+03 4.0839811e+02 1.2995374e+02 
9.3502250e+00 -1.3277800e+01 8.4759215e+01 
-3.3219929e+00 5.7033291e-01 1.3346232e+01 
-4.4238682e+00 2.8099124e-01 1.0501225e+01 
-5.1455509e+00 -2.1955931e+00 -2.3695123e-02 
-8.7923397e+00 -6.2681204e-01 1.4778018e-01 
-8.3753782e+00 -6.9309532e-01 2.4814663e-02 
-3.3627094e+00 2.0840256e-01 1.1413225e+01 
-4.0370171e+00 2.2162985e-01 1.0960405e+01 
-4.9102019e+00 8.1021083e-01 -1.2644294e+00 
-6.3827064e+00 -1.0161843e+00 -1.0257964e-01 
-9.5342595e+00 3.3622499e-01 -4.6300137e-01 
-6.2676079e+00 -1.0294921e-01 -9.4455382e+00 
-4.5323146e+00 -3.6058262e+00 1.0087538e+00 
-9.2917856e+00 -4.2306930e-01 4.8476111e-01 
-6.0383026e+00 -6.7822465e-02 -9.6502661e+00 
-2.9274774e+00 2.4979612e-01 1.1859700e+01 
-4.3064428e+00 2.1594902e-01 1.0535142e+01 
3.1160529e+03 -3.0423052e+01 6.5003622e+02 
-6.9396024e+00 1.0759290e+01 -8.6290227e+00 
-5.6854150e+00 -1.8899172e-02 -1.0959599e+01 
-4.3838800e+00 2.5657165e-02 2.8816901e+01 
-4.6845985e+00 2.0849677e-01 9.8264789e+00 
-4.3007052e+00 -3.4827166e+00 1.1021531e+00 
-9.2812929e+00 -3.5935164e-01 2.9136866e-01 
-5.7205971e+00 -1.3660400e+00 -1.4820646e-01 
-8.8227196e+00 -6.2547256e-01 1.0439124e-01 
-6.2698450e+00 -9.4297208e-02 -9.4805254e+00 
-3.2498238e+00 9.6202089e-01 1.8459071e+01 
-3.4176506e+00 3.1577708e-02 1.1047320e+01 
-3.8249335e+00 7.7352547e-02 1.0819779e+01 
-4.6294056e+00 2.2021715e-01 9.9471383e+00 
-7.4721827e+00 -6.3722399e-01 -9.4245816e-02 
-7.9577492e+00 -6.1477066e-01 -4.9073283e-02 
-8.4131409e+00 -6.1037105e-01 7.6059142e-03 
-2.9120117e+00 1.3709449e-02 1.1301276e+01 
-4.1555982e+00 1.1097571e-01 1.0529451e+01 
-4.5963559e+00 -2.2127273e+00 8.3848000e-01 
-6.9401566e+00 -6.1392910e-01 -1.1836542e-01 
-9.2727638e+00 -4.8483482e-01 2.3668000e-01 
-2.1602115e+00 5.0648672e-01 1.4322788e+01 
-4.5465522e+00 1.9001401e-01 1.0049578e+01 
-1.0658918e+01 2.4132165e+01 1.6077203e+00 
-6.0621313e+00 -1.5347381e-02 -9.5740894e+00 
-6.4968874e+00 -1.0772633e-01 -9.2327960e+00 
-6.2766372e+00 -7.5123630e-02 -9.5239752e+00 
-8.8560679e+00 -5.8142290e-01 7.5636898e-02 
-1.9792139e+00 1.3400582e-01 1.3066299e+01 
-4.4375671e+00 1.2232463e-01 1.0135644e+01 
-6.3174083e+00 -7.8741886e-01 -2.3051649e-01 
-6.4905017e+00 -1.0348350e-01 -9.3296489e+00 
-3.5861463e+00 -7.6319866e-02 1.0854834e+01 
-5.1507634e+00 -1.0695330e+00 6.0018426e-01 
-9.2815365e+00 -5.1362979e-01 1.8380131e-01 
3.3181677e+03 8.3336545e+02 1.1042787e+03 
-7.5946133e+00 1.2379610e+01 -8.7472191e+00 
-3.1019139e+00 -1.1431502e-01 1.1045716e+01 
-3.9843010e+00 -1.6750520e-02 1.0559097e+01 
9.9740552e+00 -1.4908998e+01 9.4447016e+01 
-8.3955587e-02 -4.5526602e+00 -1.0895999e+00 
-4.8178376e+00 1.3702149e-01 9.5198258e+00 
-1.0043087e+01 4.4367369e-01 -6.0887590e-01 
-6.4913738e+00 -9.8947997e-02 -9.3510584e+00 
3.9653025e+00 -7.1783746e+00 -1.3113624e+01 
-4.7598926e+00 1.4149005e-01 9.6200127e+00 
-7.9839733e+00 -4.5682251e-01 -6.3911675e-02 
-9.7940530e+00 -3.5708865e-01 4.6396890e-01 
-8.4477406e+00 -4.8401012e-01 -5.3659263e-03 
-2.2119058e+00 -5.4485273e-02 1.2448734e+01 
-4.3108653e+00 2.7329616e-02 1.0217007e+01 
-7.4847933e+00 -3.4529044e-01 -1.0795784e-01 
-6.2862489e+00 -4.3115054e-02 -9.6000916e+00 
5.2953088e+00 -6.5745906e+00 -1.8146721e+01 
-4.6832354e+00 1.0906149e-01 9.7235332e+00 
-5.7984512e+00 -2.3148947e-01 4.7907740e-01 
-9.3003256e+00 -5.1900951e-01 1.4674954e-01 
-6.4940358e+00 -9.1337738e-02 -9.3843101e+00 
-9.7745148e+00 -2.6480444e-01 2.8422668e-01 
-5.9541115e+00 1.4534470e-03 -1.0985959e+01 
-6.9093645e+00 -4.1832013e-01 -2.6521605e-01 
-8.8903955e+00 -5.0286963e-01 5.6773830e-02 
-3.3768850e+00 -1.6955200e-01 1.0858923e+01 
-3.8094977e+00 -1.3281813e-01 1.0649941e+01 
-9.7550932e+00 -3.8764208e-01 2.4883161e-01 
5.5949722e+00 -5.3279477e+00 -2.2366442e+01 
-4.5898767e+00 4.7348768e-02 9.8355039e+00 
-2.5829453e+00 -1.3208502e-01 1.2197747e+01 
-4.1787987e+00 -7.5517025e-02 1.0307522e+01 
-6.5001287e+00 -7.7398295e-02 -9.4235077e+00 
-8.1748801e+00 1.4026545e+01 -8.8206287e+00 
-4.9534092e+00 7.1179528e-02 9.2918900e+00 
-9.3257217e+00 -4.8158258e-01 1.2141071e-01 
-6.4575630e+00 3.2013429e-01 4.6422384e-01 
-6.3118447e+00 8.9912082e-03 -9.5122748e+00 
-4.8989517e+00 7.2248925e-02 9.3835377e+00 
-8.4814118e+00 -3.3025667e-01 -2.1026695e-02 
-9.7531886e+00 -4.1459402e-01 2.0889862e-01 
5.6515542e+00 -4.2607999e+00 -2.6769907e+01 
-4.4884243e+00 -3.1435972e-02 9.9540602e+00 
-8.0121495e+00 -1.7256594e-01 -7.5472936e-02 
-1.0998406e+01 2.6107787e+01 1.2056807e+00 
-3.6732444e+00 -1.8424845e-01 1.0674132e+01 
1.0620152e+01 -1.6701848e+01 1.0443135e+02 
-7.4824104e+00 -1.9887801e-01 -2.5981242e-01 
-8.9256341e+00 -3.8126124e-01 4.3372386e-02 
-6.5097959e+00 -5.4212992e-02 -9.4686081e+00 
-6.7054079e+00 -1.0470875e-01 -9.1581053e+00 
-4.8331530e+00 4.2516761e-02 9.4796178e+00 
-2.9737581e+00 -1.5632375e-01 1.2019883e+01 
-4.0517900e+00 -1.5677055e-01 1.0453767e+01 
-1.0517342e+01 5.3244330e-01 -7.4877058e-01 
-6.7022368e+00 -9.8324636e-02 -9.2613981e+00 
-1.0265563e+01 -3.0623501e-01 4.3785359e-01 
5.7441577e+00 -3.5880082e+00 -3.1905218e+01 
-4.3884257e+00 -1.0891901e-01 1.0083361e+01 
-9.7628120e+00 -4.2353592e-01 1.8093809e-01 
-4.7568875e+00 -9.0630905e-03 9.5993766e+00 
-7.0939196e+00 6.5912550e-01 5.2507380e-01 
-9.3556577e+00 -4.1011329e-01 1.0483945e-01 
-6.7062964e+00 -9.0212191e-02 -9.2868178e+00 
-1.0241074e+01 -1.8659990e-01 2.6950749e-01 
-6.2071342e+00 2.0081770e-02 -1.1001272e+01 
-6.5212943e+00 -2.0419332e-02 -9.5447891e+00 
-8.6967001e+00 1.5706580e+01 -8.8596978e+00 
-6.7119470e+00 -7.8416701e-02 -9.3236172e+00 
-3.3418475e+00 -1.5697052e-01 1.1869415e+01 
-3.9633677e+00 -1.7879640e-01 1.0466796e+01 
-1.0214644e+01 -3.0468791e-01 2.5239136e-01 
-5.0956818e+00 1.4993809e-02 9.1152983e+00 
-4.6777197e+00 -7.0323665e-02 9.7324952e+00 
-8.5197529e+00 -6.3561965e-02 -2.7347700e-02 
-5.0475717e+00 1.5261041e-02 9.2033769e+00 
-8.0297973e+00 -7.7573468e-02 -2.2572804e-01 
-8.9630361e+00 -2.3994327e-01 2.9827124e-02 
5.9213134e+00 -3.3579353e+00 -3.7735397e+01 
-4.2955901e+00 -1.6189153e-01 1.0245381e+01 
-9.7812401e+00 -3.9183268e-01 1.6203194e-01 
-6.7204499e+00 -6.0568499e-02 -9.3649658e+00 
-4.9936907e+00 -9.2233630e-03 9.2906281e+00 
-7.6931529e+00 8.5429706e-01 6.3300353e-01 
-9.3895356e+00 -2.9799688e-01 9.4143227e-02 
-1.0205202e+01 -3.2732596e-01 2.2593489e-01 
-4.6025204e+00 -1.2538092e-01 9.8740063e+00 
-6.5476086e+00 3.0896864e-02 -9.4455329e+00 
1.1283484e+01 -1.8631234e+01 1.1469708e+02 
-4.9332384e+00 -4.9441267e-02 9.4074892e+00 
-1.0961116e+01 6.0891689e-01 -8.8165636e-01 
-3.6762519e+00 -1.4726417e-01 1.1724967e+01 
-4.2377404e+00 -1.6421483e-01 1.0257717e+01 
-1.0708721e+01 -2.6525511e-01 4.0963846e-01 
6.1653553e+00 -3.5472696e+00 -4.4210274e+01 
-9.8065420e+00 -3.2859479e-01 1.5057244e-01 
-6.7317694e+00 -3.4603081e-02 -9.4103615e+00 
-1.1330743e+01 2.8150155e+01 7.9609350e-01 
-1.0207820e+01 -3.3768589e-01 2.0851068e-01 
-6.9082379e+00 -9.9456240e-02 -9.0897309e+00 
-6.9072646e+00 -9.1143692e-02 -9.1975025e+00 
-8.5496696e+00 -1.6892469e-02 -1.7369363e-01 
-1.0681905e+01 -1.2002682e-01 2.5056472e-01 
-9.1728195e+00 1.7426611e+01 -8.8688222e+00 
-4.8724059e+00 -9.4358578e-02 9.5412543e+00 
-9.0067229e+00 5.5134141e-03 3.0350912e-02 
-4.5335440e+00 -1.5671511e-01 1.0043684e+01 
-5.2455359e+00 -3.0300018e-02 8.9696419e+00 
-5.2046098e+00 -2.9290948e-02 9.0587546e+00 
-8.2521827e+00 9.5788101e-01 7.6576285e-01 
-9.4277533e+00 -1.7285592e-01 8.4795042e-02 
-6.9133755e+00 -8.0137531e-02 -9.2248864e+00 
-6.4460721e+00 3.6931802e-02 -1.1007700e+01 
-1.0651167e+01 -2.3263255e-01 2.5037391e-01 
-6.7442150e+00 1.6309014e-04 -9.4858704e+00 
-1.0220407e+01 -3.1068893e-01 1.9789805e-01 
-5.1619780e+00 -4.7594841e-02 9.1369985e+00 
-4.8158957e+00 -1.3090182e-01 9.6834129e+00 
-6.9208721e+00 -6.5128629e-02 -9.2633964e+00 
6.4480483e+00 -4.1074739e+00 -5.1245075e+01 
-3.9788412e+00 -1.3293432e-01 1.1579615e+01 
-9.8378491e+00 -2.2793674e-01 1.4481039e-01 
-4.4956538e+00 -1.4594153e-01 1.0049464e+01 
-1.0636556e+01 -2.4976470e-01 2.3722072e-01 
-5.1150940e+00 -7.6857220e-02 9.2466994e+00 
-6.9307473e+00 -4.4416363e-02 -9.3054426e+00 
-9.0429088e+00 8.6551753e-03 -1.1206976e-01 
-6.7705207e+00 5.0459942e-02 -9.3751963e+00 
-1.0241282e+01 -2.5568197e-01 1.9339093e-01 
1.1960800e+01 -2.0677974e+01 1.2523042e+02 
-4.7638530e+00 -1.4606407e-01 9.8518637e+00 
-8.7735512e+00 1.0066420e+00 9.0855889e-01 
-5.0688965e+00 -1.0760935e-01 9.3742391e+00 
-9.4732320e+00 5.1041433e-02 9.2818348e-02 
-1.1377635e+01 6.7720553e-01 -1.0074400e+00 
-1.0633952e+01 -2.6017400e-01 2.3092946e-01 
-9.6132031e+00 1.9192705e+01 -8.8521548e+00 
-1.1125712e+01 -2.3077664e-01 3.8122483e-01 
-5.4021341e+00 -6.5008725e-02 8.8429569e+00 
6.7439233e+00 -4.9795201e+00 -5.8767825e+01 
-5.3681964e+00 -6.2478512e-02 8.9356168e+00 
-9.8749855e+00 -1.2002164e-01 1.4104123e-01 
-6.9428605e+00 -1.6565399e-02 -9.3501449e+00 
-4.2557179e+00 -1.1638120e-01 1.1438439e+01 
-1.1098190e+01 -6.1856710e-02 2.2958680e-01 
-1.1656535e+01 3.0257000e+01 3.8060484e-01 
-5.0265339e+00 -1.2936096e-01 9.5105175e+00 
-7.1042584e+00 -9.2987389e-02 -9.0258910e+00 
-5.3354547e+00 -7.4629986e-02 9.0063121e+00 
-7.1046986e+00 -8.2953118e-02 -9.1367516e+00 
-4.7395846e+00 -1.2638326e-01 9.8509983e+00 
-1.0641810e+01 -2.3689928e-01 2.2963036e-01 
-1.1064973e+01 -1.6902546e-01 2.4492247e-01 
-6.6721007e+00 5.2002139e-02 -1.1007240e+01 
-1.0269480e+01 -1.6677227e-01 1.9406591e-01 
-5.2998285e+00 -9.4104699e-02 9.1074936e+00 
-7.1120076e+00 -6.9605718e-02 -9.1646535e+00 
-6.9556023e+00 1.8621508e-02 -9.4243880e+00 
-9.5115848e+00 1.5525828e-02 -4.6555409e-02 
-9.2620442e+00 1.0252152e+00 1.0526602e+00 
-4.9869361e+00 -1.3245850e-01 9.6739854e+00 
-1.1046923e+01 -1.8024543e-01 2.4453816e-01 
-7.1205127e+00 -5.2134613e-02 -9.2035848e+00 
-9.9199274e+00 8.3713390e-02 1.5677998e-01 
7.0342641e+00 -6.1052269e+00 -6.6723600e+01 
-5.2652450e+00 -1.1304608e-01 9.2261592e+00 
-1.0658721e+01 -1.8950089e-01 2.3319818e-01 
-1.0025596e+01 2.1009625e+01 -8.8132934e+00 
-4.5135088e+00 -9.8605203e-02 1.1301376e+01 
-5.5639652e+00 -9.0201352e-02 8.7277570e+00 
1.2649996e+01 -2.2827212e+01 1.3601876e+02 
-7.1310166e+00 -2.9339059e-02 -9.2452960e+00 
-5.5363440e+00 -8.5848829e-02 8.8254280e+00 
-1.0304475e+01 -7.5559627e-02 1.9676568e-01 
-1.1040518e+01 -1.8988049e-01 2.4945796e-01 
-6.9813934e+00 6.7789944e-02 -9.3023527e+00 
-1.1769414e+01 7.3990294e-01 -1.1265115e+00 
-5.2338174e+00 -1.2313217e-01 9.3536934e+00 
-1.1518414e+01 -2.0070290e-01 3.5366096e-01 
-4.9727051e+00 -1.0644799e-01 9.6635384e+00 
-5.5120018e+00 -9.2359183e-02 8.8901264e+00 
-1.1491147e+01 -9.9450462e-03 2.0795422e-01 
-7.1433197e+00 -2.4534224e-04 -9.2885893e+00 
-1.0683742e+01 -1.1165982e-01 2.4126173e-01 
-5.4856001e+00 -1.0345105e-01 8.9831639e+00 
-1.1044654e+01 -1.6944957e-01 2.5793542e-01 
-9.7227768e+00 1.0295228e+00 1.1937612e+00 
-9.9580220e+00 1.3913669e-02 1.9408009e-02 
7.3068257e+00 -7.4336508e+00 -7.5071503e+01 
-1.1456658e+01 -1.1212053e-01 2.3751510e-01 
-1.1976037e+01 3.2425723e+01 -3.9522889e-02 
-5.2038353e+00 -1.1712333e-01 9.5097652e+00 
-6.8860791e+00 6.5326621e-02 -1.1001554e+01 
-7.2926670e+00 -8.6079913e-02 -8.9653875e+00 
-7.2939198e+00 -7.4509407e-02 -9.0783286e+00 
-4.7576306e+00 -8.0037045e-02 1.1170769e+01 
-5.4603114e+00 -1.1273688e-01 9.0923810e+00 
-1.0347601e+01 1.1017170e-01 2.2027157e-01 
-7.1559061e+00 3.4994188e-02 -9.3611398e+00 
-1.1436407e+01 -1.1747495e-01 2.4921946e-01 
-7.3017887e+00 -5.9257123e-02 -9.1057108e+00 
-1.0416013e+01 2.2880791e+01 -8.7559382e+00 
-5.7293293e+00 -1.0723333e-01 8.6197342e+00 
-1.1058185e+01 -1.2874237e-01 2.7019614e-01 
-1.0716173e+01 -3.5824336e-02 2.5100455e-01 
-5.1976148e+00 -8.6383484e-02 9.4875558e+00 
-5.7071950e+00 -1.0101809e-01 8.7228683e+00 
-5.4375850e+00 -1.1363326e-01 9.2101936e+00 
-7.3106896e+00 -3.9894937e-02 -9.1441432e+00 
-1.1427301e+01 -1.2587058e-01 2.6513788e-01 
-5.6898652e+00 -1.0257833e-01 8.7829651e+00 
1.3349689e+01 -2.5067210e+01 1.4705025e+02 
-1.2138390e+01 7.9861826e-01 -1.2394821e+00 
-7.1808291e+00 8.3002500e-02 -9.2278645e+00 
-1.1888396e+01 -1.7376603e-01 3.2746452e-01 
7.5544357e+00 -8.9236838e+00 -8.3783648e+01 
-1.0160081e+01 1.0293987e+00 1.3303995e+00 
-7.3212891e+00 -1.5591737e-02 -9.1847850e+00 
-5.6710151e+00 -1.0665283e-01 8.8687738e+00 
-1.0384232e+01 9.8174713e-03 8.4060058e-02 
-1.1861918e+01 3.7113115e-02 1.8649908e-01 
-1.1080254e+01 -6.0815984e-02 2.8622313e-01 
-5.4154010e+00 -1.0063006e-01 9.3577032e+00 
-1.1428582e+01 -1.0753330e-01 2.8350762e-01 
-4.9918575e+00 -6.0912605e-02 1.1046912e+01 
-1.1826932e+01 -6.0689445e-02 2.2914438e-01 
-1.0756947e+01 1.3430387e-01 2.8231504e-01 
-5.6532692e+00 -1.0810953e-01 8.9689928e+00 
-7.3333568e+00 1.4289378e-02 -9.2261667e+00 
-7.0886391e+00 7.6960742e-02 -1.0992018e+01 
-1.2289236e+01 3.4653508e+01 -4.6331794e-01 
-7.4728999e+00 -7.9320546e-02 -8.9073937e+00 
-1.0789104e+01 2.4808411e+01 -8.6836390e+00 
-5.4159934e+00 -6.6210982e-02 9.3217413e+00 
-1.1805349e+01 -6.0462298e-02 2.5223489e-01 
-5.8965568e+00 -1.1748743e-01 8.5163147e+00 
-7.4745068e+00 -6.6372298e-02 -9.0216810e+00 
-1.1439339e+01 -7.2513170e-02 3.0475108e-01 
-5.6376600e+00 -1.0173103e-01 9.0770731e+00 
-5.8790757e+00 -1.0948672e-01 8.6247453e+00 
-1.1110117e+01 1.3070153e-03 3.0338501e-01 
-7.3454740e+00 4.9344171e-02 -9.2967423e+00 
7.7735785e+00 -1.0544359e+01 -9.2840052e+01 
-7.4824593e+00 -4.9553148e-02 -9.0477893e+00 
-5.8675533e+00 -1.0679746e-01 8.6812177e+00 
-1.0577176e+01 1.0305738e+00 1.4626951e+00 
-1.1794376e+01 -6.7381050e-02 2.7879877e-01 
-7.4913077e+00 -2.8727293e-02 -9.0850628e+00 
-1.0791727e+01 6.5170817e-03 1.4673683e-01 
1.4058930e+01 -2.7388466e+01 1.5831348e+02 
-5.6220306e+00 -8.3265284e-02 9.2155512e+00 
-5.8549044e+00 -1.0506002e-01 8.7607976e+00 
-1.2486056e+01 8.5433524e-01 -1.3470316e+00 
-5.2183860e+00 -4.1422707e-02 1.0930116e+01 
-1.2236944e+01 -1.4921789e-01 3.0283271e-01 
-1.1458837e+01 -1.3176875e-02 3.2906768e-01 
-7.3692826e+00 9.6212090e-02 -9.1524254e+00 
-7.5016199e+00 -3.3343178e-03 -9.1241154e+00 
-1.2211525e+01 8.0235643e-02 1.6569135e-01 
-1.1793521e+01 -5.0515419e-02 3.0697681e-01 
-5.8433590e+00 -1.0017769e-01 8.8528120e+00 
-1.1148483e+01 1.5819242e-01 3.4258479e-01 
-5.6286195e+00 -4.5926801e-02 9.1645307e+00 
-1.2176523e+01 -1.3865225e-02 2.2045634e-01 
-7.5131520e+00 2.7018457e-02 -9.1632450e+00 
-1.1148452e+01 2.6793659e+01 -8.5996957e+00 
7.9630491e+00 -1.2273510e+01 -1.0222595e+02 
-5.8336839e+00 -8.8001861e-02 8.9516140e+00 
-6.0640849e+00 -1.2224670e-01 8.4159512e+00 
-7.2802533e+00 8.6971319e-02 -1.0979727e+01 
-6.0504864e+00 -1.1257370e-01 8.5291136e+00 
-1.1486365e+01 3.6961238e-02 3.5390688e-01 
-1.1802077e+01 -2.0209617e-02 3.3729093e-01 
-1.0976152e+01 1.0360707e+00 1.5914992e+00 
-1.2154205e+01 -8.4482521e-03 2.5427465e-01 
-1.2595917e+01 3.6937405e+01 -8.9003411e-01 
-6.0437501e+00 -1.0626493e-01 8.5825539e+00 
-7.6445713e+00 -7.3146681e-02 -8.8513258e+00 
-7.5245824e+00 6.1745388e-02 -9.2316835e+00 
-5.4381785e+00 -2.1766067e-02 1.0820161e+01 
-1.1181490e+01 5.5849661e-03 2.0741319e-01 
-7.6461842e+00 -5.8951840e-02 -8.9664276e+00 
-5.8236642e+00 -6.5223408e-02 9.0810865e+00 
-1.2141985e+01 -1.3792909e-02 2.9108203e-01 
-6.0362058e+00 -9.9727409e-02 8.6567447e+00 
-7.6538652e+00 -4.0823224e-02 -8.9907150e+00 
1.4777017e+01 -2.9783085e+01 1.6979730e+02 
-1.1819437e+01 3.1853688e-02 3.7006731e-01 
-1.2813565e+01 9.0764583e-01 -1.4498276e+00 
-7.6623327e+00 -1.8848278e-02 -9.0263569e+00 
-6.0297948e+00 -8.9702516e-02 8.7413980e+00 
-1.1522532e+01 1.8279027e-01 4.0113446e-01 
-1.2565110e+01 -1.2662818e-01 2.7977715e-01 
-7.5471056e+00 1.0752784e-01 -9.0765821e+00 
-1.2139572e+01 2.1056065e-03 3.2888209e-01 
-5.8355749e+00 -2.5577484e-02 9.0143151e+00 
-1.2540855e+01 1.2002749e-01 1.4576715e-01 
8.1229843e+00 -1.4095911e+01 -1.1192908e+02 
-7.6720820e+00 7.3371390e-03 -9.0634586e+00 
-6.0251065e+00 -7.2882683e-02 8.8315671e+00 
-1.1496792e+01 2.8836847e+01 -8.5069951e+00 
-1.2506120e+01 2.8973007e-02 2.1185476e-01 
-6.2304782e+00 -1.2264412e-01 8.3176393e+00 
-1.1358185e+01 1.0471906e+00 1.7178494e+00 
-6.2200763e+00 -1.1140833e-01 8.4347893e+00 
-1.1844972e+01 7.1650309e-02 4.0276927e-01 
-1.2146429e+01 2.8578481e-02 3.6823850e-01 
-7.4612845e+00 9.5429186e-02 -1.0965538e+01 
-7.6828667e+00 3.7950033e-02 -9.1001185e+00 
-6.2172639e+00 -1.0201276e-01 8.4854778e+00 
-5.6513465e+00 -2.1553993e-03 1.0716686e+01 
-1.2483470e+01 3.9154999e-02 2.5581675e-01 
-1.1554073e+01 7.5671638e-03 2.6637369e-01 
-6.0198950e+00 -4.6691947e-02 8.9523831e+00 
-6.2139155e+00 -9.1503191e-02 8.5549162e+00 
-1.2895711e+01 3.9274389e+01 -1.3191072e+00 
-7.8074288e+00 -6.7880343e-02 -8.7967593e+00 
-1.2470454e+01 3.5397619e-02 3.0246945e-01 
-7.6934597e+00 7.2274626e-02 -9.1663488e+00 
-7.8087845e+00 -5.2545094e-02 -8.9122988e+00 
-1.2162075e+01 7.4586327e-02 4.0954920e-01 
-1.1879261e+01 2.0838146e-01 4.5820045e-01 
-6.2117550e+00 -7.7294174e-02 8.6329726e+00 
1.5503374e+01 -3.2244334e+01 1.8149061e+02 
-6.0364836e+00 -5.2714459e-03 8.8697253e+00 
-1.3121817e+01 9.5889963e-01 -1.5484853e+00 
8.2541544e+00 -1.6001348e+01 -1.2193802e+02 
-7.8159294e+00 -3.3299831e-02 -8.9343739e+00 
-1.2873749e+01 -1.0575666e-01 2.5820799e-01 
-1.2466936e+01 5.0731411e-02 3.4966308e-01 
-7.8237753e+00 -1.0402839e-02 -8.9680514e+00 
-6.2112434e+00 -5.6747567e-02 8.7152140e+00 
-1.2850668e+01 1.5689492e-01 1.2681511e-01 
-7.7145794e+00 1.1705108e-01 -9.0007586e+00 
-1.1723782e+01 1.0641861e+00 1.8426828e+00 
-1.1836183e+01 3.0937575e+01 -8.4079406e+00 
-6.3944295e+00 -1.1965237e-01 8.2206811e+00 
-1.2185982e+01 1.0553134e-01 4.5025073e-01 
-6.3866240e+00 -1.0694542e-01 8.3410378e+00 
-1.2816354e+01 6.8280291e-02 2.0357642e-01 
-7.8327630e+00 1.6369335e-02 -9.0029583e+00 
-5.8574978e+00 1.7193330e-02 1.0619204e+01 
-1.1909713e+01 1.2430041e-02 3.2400363e-01 
-6.3870031e+00 -9.4899889e-02 8.3890540e+00 
-1.2472513e+01 7.4138388e-02 3.9797166e-01 
-6.2101072e+00 -2.7877690e-02 8.8279328e+00 
-1.2793633e+01 8.2810044e-02 2.5718088e-01 
-7.6320193e+00 1.0240420e-01 -1.0950108e+01 
-6.3870804e+00 -8.1089291e-02 8.4541969e+00 
-7.8426502e+00 4.7108680e-02 -9.0370223e+00 
-1.2780143e+01 8.0604782e-02 3.1331124e-01 
8.3575270e+00 -1.7982965e+01 -1.3224125e+02 
-6.2307241e+00 1.4837104e-02 8.7296736e+00 
-6.3884100e+00 -6.3468537e-02 8.5263134e+00 
-1.2218732e+01 2.3488578e-01 5.1407371e-01 
-1.2486819e+01 1.1516973e-01 4.4783308e-01 
-1.3188135e+01 4.1661399e+01 -1.7501190e+00 
-7.8523021e+00 8.1006803e-02 -9.1010394e+00 
-7.9613208e+00 -6.3755376e-02 -8.7433777e+00 
1.6237476e+01 -3.4766332e+01 1.9338231e+02 
-7.9622211e+00 -4.7364459e-02 -8.8590975e+00 
-1.2073031e+01 1.0867132e+00 1.9667090e+00 
-1.3411522e+01 1.0082977e+00 -1.6435524e+00 
-6.3913520e+00 -3.9939162e-02 8.6013303e+00 
-1.2775860e+01 9.5690901e-02 3.6966233e-01 
-1.3163559e+01 -8.6474382e-02 2.3798491e-01 
-7.9686327e+00 -2.7144538e-02 -8.8786891e+00 
-1.2168147e+01 3.3094849e+01 -8.3044291e+00 
-6.0560021e+00 3.6075823e-02 1.0527183e+01 
-1.3141610e+01 1.9111836e-01 1.0883348e-01 
-6.5547572e+00 -1.1409212e-01 8.1245593e+00 
-7.8719374e+00 1.2487385e-01 -8.9252746e+00 
-7.9756802e+00 -3.4852701e-03 -8.9101755e+00 
-6.5490269e+00 -9.9986813e-02 8.2474021e+00 
-1.2509431e+01 1.3857697e-01 4.9663360e-01 
-1.2248448e+01 1.9844814e-02 3.8067040e-01 
-6.3935989e+00 -9.0036516e-03 8.7066337e+00 
-1.3107786e+01 1.0439953e-01 1.9574438e-01 
-6.5519707e+00 -8.5645798e-02 8.2927189e+00 
-1.2780492e+01 1.1668309e-01 4.2680370e-01 
-7.9837626e+00 2.3737356e-02 -8.9427319e+00 
-6.5548094e+00 -6.9078329e-02 8.3538968e+00 
-1.3085157e+01 1.2288795e-01 2.5856994e-01 
-7.7926928e+00 1.0796201e-01 -1.0933927e+01 
8.4340139e+00 -2.0035979e+01 -1.4282658e+02 
-6.4175918e+00 3.4572259e-02 8.5933477e+00 
-7.9926461e+00 5.4527666e-02 -8.9741408e+00 
-6.5589599e+00 -4.8674459e-02 8.4206345e+00 
-1.2540946e+01 2.6205085e-01 5.6902606e-01 
-1.3071414e+01 1.2217399e-01 3.2385145e-01 
-1.2793768e+01 1.5367056e-01 4.8519619e-01 
-1.2405787e+01 1.1141261e+00 2.0903842e+00 
-6.5646978e+00 -2.2775706e-02 8.4891028e+00 
-8.0012854e+00 8.8012160e-02 -9.0359849e+00 
1.6978807e+01 -3.7343831e+01 2.0546123e+02 
-1.3472623e+01 4.4095371e+01 -2.1827664e+00 
-1.3683252e+01 1.0559507e+00 -1.7355060e+00 
-6.2461739e+00 5.4311937e-02 1.0440081e+01 
-8.1061728e+00 -6.0939021e-02 -8.6909409e+00 
-1.3066616e+01 1.3726060e-01 3.8913407e-01 
-1.2493775e+01 3.5307190e+01 -8.1978801e+00 
-1.3435120e+01 -6.8716142e-02 2.1894732e-01 
-8.1064685e+00 -4.3559444e-02 -8.8066754e+00 
-6.7104026e+00 -1.0664739e-01 8.0288831e+00 
-6.7062976e+00 -9.1202159e-02 8.1536039e+00 
-1.2815365e+01 1.7068056e-01 5.4216262e-01 
-1.3414233e+01 2.2289802e-01 9.1767120e-02 
-1.2570218e+01 2.9361319e-02 4.3666729e-01 
-8.1120000e+00 -2.2467388e-02 -8.8236055e+00 
-6.5696748e+00 9.7051811e-03 8.5877307e+00 
-6.7112676e+00 -7.4854328e-02 8.1961604e+00 
-8.0193802e+00 1.3107818e-01 -8.8503630e+00 
-8.1181187e+00 1.8456675e-03 -8.8527551e+00 
-1.3380912e+01 1.3759675e-01 1.8840541e-01 
-1.3070556e+01 1.5638302e-01 4.5497768e-01 
-6.7162896e+00 -5.5974359e-02 8.2536290e+00 
8.4843544e+00 -2.2156763e+01 -1.5368106e+02 
-6.5964069e+00 5.3758951e-02 8.4601652e+00 
-8.1251914e+00 2.9434712e-02 -8.8828715e+00 
-1.3358469e+01 1.5969217e-01 2.6010154e-01 
-6.7226678e+00 -3.3304282e-02 8.3154761e+00 
-1.2845889e+01 2.8956691e-01 6.2327456e-01 
-7.9435040e+00 1.1216213e-01 -1.0917351e+01 
-1.3083045e+01 1.9012168e-01 5.2185790e-01 
-1.2721816e+01 1.1456608e+00 2.2139380e+00 
-1.3344618e+01 1.6039760e-01 3.3425023e-01 
-8.1329951e+00 6.0243850e-02 -8.9116142e+00 
-6.7306046e+00 -5.5470690e-03 8.3780351e+00 
-6.4273845e+00 7.1753915e-02 1.0357375e+01 
-1.2813819e+01 3.7572709e+01 -8.0892919e+00 
-1.3339480e+01 1.7567911e-01 4.0825606e-01 
1.7726826e+01 -3.9972064e+01 2.1771609e+02 
-8.1405720e+00 9.3354589e-02 -8.9713542e+00 
-6.8604294e+00 -9.7881918e-02 7.9333641e+00 
-1.3937472e+01 1.1019150e+00 -1.8247567e+00 
-1.2874931e+01 4.0508167e-02 4.9219630e-01 
-6.7377058e+00 2.8037668e-02 8.4707393e+00 
-1.3748545e+01 4.6573251e+01 -2.6168340e+00 
-1.3103842e+01 2.0171683e-01 5.8702687e-01 
-1.3688916e+01 -5.2452275e-02 2.0093143e-01 
-6.8575639e+00 -8.1146541e-02 8.0594888e+00 
-8.2419697e+00 -5.9548897e-02 -8.6392648e+00 
-8.2415488e+00 -4.1233408e-02 -8.7549178e+00 
-6.8640978e+00 -6.3029965e-02 8.0992372e+00 
-1.3669007e+01 2.5238215e-01 7.5531247e-02 
8.5090827e+00 -2.4342251e+01 -1.6479097e+02 
-8.2460902e+00 -1.9341441e-02 -8.7690802e+00 
-1.3342913e+01 1.9338545e-01 4.8266932e-01 
-8.1570869e+00 1.3573582e-01 -8.7761854e+00 
-6.8708008e+00 -4.2203946e-02 8.1532172e+00 
-1.3636173e+01 1.6808411e-01 1.8155576e-01 
-6.7665781e+00 7.2240071e-02 8.3297228e+00 
-8.2511834e+00 5.5557119e-03 -8.7958090e+00 
-6.8788833e+00 -1.7696239e-02 8.2106119e+00 
-1.3133554e+01 3.1713008e-01 6.7697041e-01 
-1.3613958e+01 1.9347530e-01 2.6183168e-01 
-1.3020883e+01 1.1805443e+00 2.3374214e+00 
-8.2571697e+00 3.3466302e-02 -8.8234450e+00 
-1.3354791e+01 2.2454907e-01 5.5797708e-01 
-8.0846284e+00 1.1505691e-01 -1.0900633e+01 
-1.3600088e+01 1.9552663e-01 3.4460262e-01 
-6.5991195e+00 8.8290256e-02 1.0278580e+01 
-6.8884846e+00 1.1492297e-02 8.2678615e+00 
-8.2638384e+00 6.4294252e-02 -8.8495440e+00 
-1.3128761e+01 3.9889184e+01 -7.9793143e+00 
-7.0040223e+00 -8.8254439e-02 7.8378060e+00 
-1.3162508e+01 5.2845618e-02 5.4737276e-01 
-1.3594726e+01 2.1115688e-01 4.2714261e-01 
-6.8971623e+00 4.5809381e-02 8.3553732e+00 
1.8480956e+01 -4.2646639e+01 2.3013549e+02 
-7.0020685e+00 -7.0274863e-02 7.9649945e+00 
-1.3374944e+01 2.3157341e-01 6.3135674e-01 
-1.4174572e+01 1.1462138e+00 -1.9116543e+00 
-8.2703175e+00 9.7090678e-02 -8.9072652e+00 
8.5085426e+00 -2.6589564e+01 -1.7614202e+02 
-1.3925358e+01 -3.7672188e-02 1.8377960e-01 
-7.0097722e+00 -5.0589258e-02 8.0019254e+00 
-1.4015225e+01 4.9092018e+01 -3.0521706e+00 
-1.3906344e+01 2.7968458e-01 6.0026438e-02 
-8.3687436e+00 -5.9666318e-02 -8.5882091e+00 
-7.0177236e+00 -2.8122336e-02 8.0526281e+00 
-8.3675216e+00 -4.0456430e-02 -8.7037352e+00 
-6.9276316e+00 8.9887412e-02 8.2017496e+00 
-1.3597779e+01 2.2782542e-01 5.0999483e-01 
-1.3873957e+01 1.9603500e-01 1.7515920e-01 
-8.2852233e+00 1.3890824e-01 -8.7028452e+00 
-8.3709899e+00 -1.7813746e-02 -8.7150780e+00 
-7.0270553e+00 -2.1340951e-03 8.1059748e+00 
-1.3403965e+01 3.4447326e-01 7.3020183e-01 
-1.3302803e+01 1.2180539e+00 2.4607590e+00 
-8.3749850e+00 7.6269461e-03 -8.7393478e+00 
-1.3851982e+01 2.2445099e-01 2.6377265e-01 
-6.7609995e+00 1.0384610e-01 1.0203256e+01 
-1.3609167e+01 2.5698488e-01 5.9365694e-01 
-7.0378527e+00 2.8129452e-02 8.1584749e+00 
-8.3798273e+00 3.5843345e-02 -8.7644985e+00 
-8.2162263e+00 1.1669113e-01 -1.0883939e+01 
-1.3838139e+01 2.2777938e-01 3.5495431e-01 
-1.3432911e+01 6.5989392e-02 6.0224009e-01 
-8.3853198e+00 6.6713708e-02 -8.7879986e+00 
-1.3438877e+01 4.2254121e+01 -7.8683227e+00 
-7.0476261e+00 6.2871001e-02 8.2414843e+00 
-7.1404837e+00 -7.8132093e-02 7.7420961e+00 
-1.3628781e+01 2.6016446e-01 6.7522906e-01 
8.4829271e+00 -2.8895819e+01 -1.8771950e+02 
-1.3832623e+01 2.4388282e-01 4.4585725e-01 
-7.1391674e+00 -5.8953705e-02 7.8701296e+00 
1.9240574e+01 -4.5363461e+01 2.4270793e+02 
-7.1477094e+00 -3.7869511e-02 7.9042814e+00 
-1.4394887e+01 1.1888513e+00 -1.9964953e+00 
-1.4144806e+01 -2.4374918e-02 1.6734495e-01 
-8.3906743e+00 9.9269219e-02 -8.8437941e+00 
-7.0792174e+00 1.0660718e-01 8.0760699e+00 
-7.1565425e+00 -1.4017770e-02 7.9519230e+00 
-1.4126605e+01 3.0489569e-01 4.5148031e-02 
-1.3835375e+01 2.5983139e-01 5.3702085e-01 
-1.4271952e+01 5.1648687e+01 -3.4886688e+00 
-8.4865644e+00 -6.1346735e-02 -8.5376679e+00 
-8.4844769e+00 -4.1275250e-02 -8.6530573e+00 
-1.3567465e+01 1.2575460e+00 2.5837953e+00 
-1.4094615e+01 2.2159417e-01 1.6915945e-01 
-7.1667353e+00 1.3153096e-02 8.0016024e+00 
-1.3657179e+01 3.7137754e-01 7.8300390e-01 
-8.4039477e+00 1.4064699e-01 -8.6304003e+00 
-8.4868083e+00 -1.7913687e-02 -8.6615683e+00 
-6.9127773e+00 1.1838116e-01 1.0131020e+01 
-1.4072868e+01 2.5280239e-01 2.6590642e-01 
-8.4896496e+00 8.0516872e-03 -8.6833742e+00 
-7.1783290e+00 4.4196477e-02 8.0498731e+00 
-1.3846351e+01 2.8747243e-01 6.2895347e-01 
-1.4059070e+01 2.5734777e-01 3.6531452e-01 
-8.3384499e+00 1.1710193e-01 -1.0867370e+01 
-8.4933034e+00 3.6579669e-02 -8.7060595e+00 
-1.3686151e+01 7.9617651e-02 6.5678767e-01 
-7.1887891e+00 7.9112349e-02 8.1290170e+00 
8.4323245e+00 -3.1258036e+01 -1.9950850e+02 
-1.3744285e+01 4.4664806e+01 -7.7564884e+00 
-7.2692292e+00 -6.7802003e-02 7.6461960e+00 
-7.2683250e+00 -4.7471405e-02 7.7749585e+00 
-1.3865486e+01 2.8743401e-01 7.1867622e-01 
-8.4975871e+00 6.7533233e-02 -8.7270189e+00 
-1.4053436e+01 2.7402847e-01 4.6442434e-01 
-7.2774321e+00 -2.5136176e-02 7.8064165e+00 
2.0005004e+01 -4.8118679e+01 2.5542179e+02 
-7.2211017e+00 1.2234131e-01 7.9525753e+00 
-1.4598711e+01 1.2298194e+00 -2.0795299e+00 
-7.2868425e+00 -1.1559637e-04 7.8512229e+00 
-1.4347575e+01 -1.2563814e-02 1.5149339e-01 
-8.5017950e+00 9.9930993e-02 -8.7809829e+00 
-1.4055931e+01 2.8952756e-01 5.6377474e-01 
-1.4330111e+01 3.2808942e-01 3.0791923e-02 
-1.3814836e+01 1.2984656e+00 2.7063318e+00 
-7.2975743e+00 2.7989897e-02 7.8975969e+00 
-1.3893293e+01 3.9767298e-01 8.3537066e-01 
-1.4298464e+01 2.4488461e-01 1.6348877e-01 
-1.4517990e+01 5.4240322e+01 -3.9262487e+00 
-8.5955335e+00 -6.4627908e-02 -8.4875636e+00 
-7.0543231e+00 1.3188622e-01 1.0061542e+01 
-8.5925301e+00 -4.3720961e-02 -8.6028299e+00 
-8.5134154e+00 1.4099408e-01 -8.5588728e+00 
-7.3096330e+00 5.9571140e-02 7.9421187e+00 
-1.4276920e+01 2.7868843e-01 2.6819466e-01 
-8.5936742e+00 -1.9659394e-02 -8.6085242e+00 
-1.4066536e+01 3.1606660e-01 6.6388515e-01 
-8.5953171e+00 6.8278549e-03 -8.6278844e+00 
-1.3922291e+01 9.3469016e-02 7.1096783e-01 
-1.4263163e+01 2.8440207e-01 3.7566637e-01 
8.3567642e+00 -3.3673122e+01 -2.1149405e+02 
-7.3204433e+00 9.4462849e-02 8.0179751e+00 
-8.4514478e+00 1.1631898e-01 -1.0850979e+01 
-1.4044991e+01 4.7118355e+01 -7.6438394e+00 
-8.5977464e+00 3.5688941e-02 -8.6481401e+00 
-7.3897805e+00 -5.7481390e-02 7.5501311e+00 
-7.3891084e+00 -3.6046982e-02 7.6795886e+00 
-1.4085219e+01 3.1335409e-01 7.6169628e-01 
-1.4257422e+01 3.0175094e-01 4.8283918e-01 
-7.3985605e+00 -1.2589764e-02 7.7084785e+00 
-8.6007937e+00 6.6778864e-02 -8.6666239e+00 
-7.3531518e+00 1.3706592e-01 7.8312043e+00 
2.0773518e+01 -5.0908643e+01 2.6826541e+02 
-7.4083031e+00 1.3417131e-02 7.7506846e+00 
-1.4786309e+01 1.2691039e+00 -2.1609686e+00 
-1.4533953e+01 -2.2436153e-03 1.3610402e-01 
-1.4044957e+01 1.3403443e+00 2.8281541e+00 
-1.4259678e+01 3.1703461e-01 5.9025419e-01 
-8.6038354e+00 9.9108713e-02 -8.7188474e+00 
-1.4517157e+01 3.4932779e-01 1.6858048e-02 
-7.4193143e+00 4.2251806e-02 7.7940974e+00 
-1.4112439e+01 4.2323416e-01 8.8726699e-01 
-7.1856038e+00 1.4437892e-01 9.9945518e+00 
-1.4485799e+01 2.6601244e-01 1.5807394e-01 
-1.4752583e+01 5.6864041e+01 -4.3648454e+00 
-7.4315730e+00 7.4175140e-02 7.8353120e+00 
-8.6957789e+00 -6.9536317e-02 -8.4378422e+00 
-8.6137826e+00 1.3998244e-01 -8.4882578e+00 
-8.6918184e+00 -4.7815007e-02 -8.5530120e+00 
-1.4269927e+01 3.4283213e-01 6.9844229e-01 
-1.4464424e+01 3.0224839e-01 2.7058628e-01 
-8.6917336e+00 -2.3062695e-02 -8.5559227e+00 
8.2562556e+00 -3.6137880e+01 -2.2366126e+02 
-1.4141442e+01 1.0733642e-01 7.6471008e-01 
-7.4424669e+00 1.0888944e-01 7.9083992e+00 
-1.4450691e+01 3.0909449e-01 3.8597512e-01 
-8.6921408e+00 3.9554024e-03 -8.5728696e+00 
-1.4340923e+01 4.9611755e+01 -7.5303106e+00 
-8.5553689e+00 1.1436471e-01 -1.0834778e+01 
-7.5017566e+00 -4.7326508e-02 7.4539782e+00 
-7.5011775e+00 -2.4838279e-02 7.5841589e+00 
-1.4288163e+01 3.3792053e-01 8.0426255e-01 
-8.6933141e+00 3.3182554e-02 -8.5907404e+00 
-7.4753179e+00 1.5078803e-01 7.7119286e+00 
-7.5108040e+00 -3.7260818e-04 7.6106372e+00 
-1.4444836e+01 3.2719478e-01 5.0107641e-01 
-7.5206878e+00 2.6466415e-02 7.6504835e+00 
-8.6950998e+00 6.4470806e-02 -8.6068157e+00 
-1.4257932e+01 1.3827947e+00 2.9490505e+00 
2.1545332e+01 -5.3729876e+01 2.8122705e+02 
-1.4957925e+01 1.3066863e+00 -2.2409876e+00 
-1.4704206e+01 6.5810880e-03 1.2106881e-01 
-1.4446851e+01 3.4246955e-01 6.1643566e-01 
-1.4314780e+01 4.4797365e-01 9.3863881e-01 
-7.5317777e+00 5.5861224e-02 7.6912617e+00 
-7.3066613e+00 1.5589932e-01 9.9298266e+00 
-1.4688017e+01 3.6866403e-01 3.2523750e-03 
-8.6969554e+00 9.6827041e-02 -8.6573832e+00 
-7.5440332e+00 8.7970617e-02 7.7295727e+00 
-1.4656894e+01 2.8507045e-01 1.5284035e-01 
-1.4456741e+01 3.6784114e-01 7.3259530e-01 
-1.4974961e+01 5.9517018e+01 -4.8043989e+00 
-1.4635651e+01 3.2360548e-01 2.7302291e-01 
8.1308207e+00 -3.8649037e+01 -2.3599543e+02 
-8.7052084e+00 1.3763631e-01 -8.4185307e+00 
-8.7874513e+00 -7.6092227e-02 -8.3884689e+00 
-1.4343756e+01 1.2105958e-01 8.1793219e-01 
-8.7824983e+00 -5.3573875e-02 -8.5035743e+00 
-7.5548092e+00 1.2239290e-01 7.8003509e+00 
-8.7811480e+00 -2.8132986e-02 -8.5037444e+00 
-1.4621915e+01 3.3156202e-01 3.9619462e-01 
-1.4631960e+01 5.2141898e+01 -7.4157836e+00 
-7.6048637e+00 -3.7440626e-02 7.3578529e+00 
-8.7802860e+00 -5.6646285e-04 -8.5183177e+00 
-1.4474520e+01 3.6114819e-01 8.4633186e-01 
-7.6042759e+00 -1.3949514e-02 7.4888297e+00 
-8.6503655e+00 1.1125449e-01 -1.0818752e+01 
-7.5876155e+00 1.6354140e-01 7.5947430e+00 
-7.6139503e+00 1.1424448e-02 7.5130746e+00 
-1.4615930e+01 3.5049348e-01 5.1909692e-01 
-8.7801739e+00 2.9067980e-02 -8.5338522e+00 
-7.6238341e+00 3.8965616e-02 7.5508025e+00 
-1.4453917e+01 1.4255008e+00 3.0688230e+00 
-8.7806730e+00 6.0622759e-02 -8.5475839e+00 
2.2319611e+01 -5.6579047e+01 2.9429497e+02 
-7.4175928e+00 1.6650578e-01 9.8671935e+00 
-7.6348550e+00 6.8782533e-02 7.5892541e+00 
-1.4500506e+01 4.7183530e-01 9.8942132e-01 
-1.5113791e+01 1.3425465e+00 -2.3197347e+00 
-1.4617690e+01 3.6594532e-01 6.4228127e-01 
-1.4858584e+01 1.3906600e-02 1.0629176e-01 
-1.4842949e+01 3.8614457e-01 -1.0112060e-02 
-7.6469605e+00 1.0095562e-01 7.6250282e+00 
-8.7813215e+00 9.3102593e-02 -8.5965710e+00 
-1.4812011e+01 3.0214063e-01 1.4771479e-01 
7.9805186e+00 -4.1203284e+01 -2.4848208e+02 
-1.4627206e+01 3.9117072e-01 7.6630161e-01 
-1.4529416e+01 1.3451759e-01 8.7054812e-01 
-7.6574755e+00 1.3500340e-01 7.6939035e+00 
-1.4790860e+01 3.4286960e-01 2.7544301e-01 
-8.7878569e+00 1.3397160e-01 -8.3496532e+00 
-1.5184337e+01 6.2196492e+01 -5.2448478e+00 
-8.8707220e+00 -8.4313691e-02 -8.3394253e+00 
-8.8647437e+00 -6.1012816e-02 -8.4544980e+00 
-1.4917962e+01 5.4705614e+01 -7.3001157e+00 
-7.6988843e+00 -2.7881233e-02 7.2618982e+00 
-1.4777092e+01 3.5192864e-01 4.0627222e-01 
-8.8620936e+00 -3.4880298e-02 -8.4519737e+00 
-1.4644505e+01 3.8306659e-01 8.8785116e-01 
-7.6982191e+00 -3.4383098e-03 7.3937744e+00 
-7.6901086e+00 1.7538210e-01 7.4796592e+00 
-7.7078550e+00 2.2755526e-02 7.4159766e+00 
-8.8599301e+00 -6.7414944e-03 -8.4642153e+00 
-8.7365947e+00 1.0699683e-01 -1.0802867e+01 
-1.4633106e+01 1.4682088e+00 3.1872934e+00 
-1.4770952e+01 3.7177060e-01 5.3685316e-01 
-7.7176417e+00 5.0889547e-02 7.4518240e+00 
-8.8585032e+00 2.3347430e-02 -8.4774612e+00 
-7.5185334e+00 1.7627115e-01 9.8065202e+00 
-7.7284936e+00 8.1016753e-02 7.4882372e+00 
-1.4669828e+01 4.9478816e-01 1.0395451e+00 
2.3095465e+01 -5.9452955e+01 3.0745740e+02 
-1.4772436e+01 3.8757041e-01 6.6774439e-01 
-8.8576893e+00 5.5241346e-02 -8.4889092e+00 
-1.5254130e+01 1.3766639e+00 -2.3973331e+00 
-1.4997327e+01 1.9730419e-02 9.1687959e-02 
-7.7403517e+00 1.1315916e-01 7.5218066e+00 
-1.4982199e+01 4.0181060e-01 -2.3314739e-02 
7.8054635e+00 -4.3797303e+01 -2.6110705e+02 
-8.8571068e+00 8.7943899e-02 -8.5363816e+00 
-1.4951400e+01 3.1729618e-01 1.4262723e-01 
-1.4781555e+01 4.1290078e-01 7.9951104e-01 
-1.4698631e+01 1.4762224e-01 9.2247338e-01 
-7.7505140e+00 1.4677577e-01 7.5891357e+00 
-1.4930305e+01 3.6013941e-01 2.7778471e-01 
-8.8618988e+00 1.2899607e-01 -8.2815774e+00 
-1.5379913e+01 6.4899768e+01 -5.6861245e+00 
-1.5198785e+01 5.7299694e+01 -7.1831616e+00 
-8.9457807e+00 -9.4219784e-02 -8.2907065e+00 
-7.7836660e+00 -1.8666497e-02 7.1662737e+00 
-1.4916472e+01 3.7030706e-01 4.1615237e-01 
-7.7828962e+00 1.8638437e-01 7.3667004e+00 
-8.9387445e+00 -7.0148824e-02 -8.4057729e+00 
-7.7828845e+00 6.6778191e-03 7.2991715e+00 
-1.4798347e+01 4.0371616e-01 9.2876259e-01 
-8.9347601e+00 -4.3317768e-02 -8.4005993e+00 
-7.7924300e+00 3.3613502e-02 7.3195273e+00 
-1.4795723e+01 1.5107181e+00 3.3043058e+00 
-8.8142202e+00 1.0159335e-01 -1.0787073e+01 
-8.9312621e+00 -1.4578223e-02 -8.4105490e+00 
-1.4910148e+01 3.9114066e-01 5.5429331e-01 
-7.8020614e+00 6.2248677e-02 7.3537251e+00 
-7.6096425e+00 1.8527950e-01 9.7477102e+00 
-8.9284893e+00 1.6016731e-02 -8.4215497e+00 
-7.8126857e+00 9.2596166e-02 7.3883680e+00 
-1.4822972e+01 5.1682131e-01 1.0889404e+00 
-1.4911330e+01 4.0744861e-01 6.9277384e-01 
2.3871954e+01 -6.2348515e+01 3.2070263e+02 
-1.5379160e+01 1.4090176e+00 -2.4738858e+00 
-8.9263330e+00 4.8325580e-02 -8.4307666e+00 
-1.5120667e+01 2.4051265e-02 7.7182491e-02 
-7.8242422e+00 1.2463623e-01 7.4200322e+00 
7.6058379e+00 -4.6427796e+01 -2.7385647e+02 
-1.5106007e+01 4.1569903e-01 -3.6427667e-02 
-1.5075306e+01 3.3060297e-01 1.3751192e-01 
-1.4851631e+01 1.6031239e-01 9.7362829e-01 
-1.4920027e+01 4.3311241e-01 8.3216997e-01 
-8.9244925e+00 8.1351284e-02 -8.4767789e+00 
-7.8340038e+00 1.5778510e-01 7.4861275e+00 
-1.5054230e+01 3.7550411e-01 2.7998785e-01 
-1.5474300e+01 5.9920915e+01 -7.0647882e+00 
-8.9275114e+00 1.2270940e-01 -8.2142502e+00 
-7.8591113e+00 -9.7810490e-03 7.0711472e+00 
-7.8661002e+00 1.9663675e-01 7.2558984e+00 
-1.4936284e+01 4.2314528e-01 9.6900719e-01 
-7.8582000e+00 1.6415577e-02 7.2051988e+00 
-1.5040301e+01 3.8680026e-01 4.2577928e-01 
-1.5560876e+01 6.7624222e+01 -6.1281526e+00 
-9.0128340e+00 -1.0583322e-01 -8.2423187e+00 
-7.8676336e+00 4.4024228e-02 7.2239048e+00 
-9.0047055e+00 -8.1003058e-02 -8.3573970e+00 
-1.4942011e+01 1.5528735e+00 3.4197263e+00 
-8.9993507e+00 -5.3463677e-02 -8.3496139e+00 
-7.8770849e+00 7.3083650e-02 7.2566738e+00 
-8.8834122e+00 9.5038782e-02 -1.0771311e+01 
-1.5033766e+01 4.0871009e-01 5.7136422e-01 
-7.6910928e+00 1.9362348e-01 9.6906969e+00 
-8.9944824e+00 -2.4091484e-02 -8.3573060e+00 
-7.8874587e+00 1.0357924e-01 7.2897942e+00 
-1.4960176e+01 5.3793969e-01 1.1375403e+00 
-8.9903293e+00 7.0643191e-03 -8.3660984e+00 
-1.5034619e+01 4.2567894e-01 7.1731706e-01 
2.4648085e+01 -6.5262746e+01 3.3401901e+02 
-7.8986958e+00 1.3546322e-01 7.3198229e+00 
7.3819008e+00 -4.9091502e+01 -2.8671679e+02 
-1.5489095e+01 1.4395877e+00 -2.5494786e+00 
-1.5228834e+01 2.6868961e-02 6.2709383e-02 
-8.9867977e+00 3.9866310e-02 -8.3731279e+00 
-1.5214608e+01 4.2784328e-01 -4.9515613e-02 
-1.4988656e+01 1.7254927e-01 1.0239398e+00 
-7.9080454e+00 1.6812264e-01 7.3849581e+00 
-1.5042865e+01 4.5188672e-01 8.6422427e-01 
-1.5183968e+01 3.4212060e-01 1.3230807e-01 
-8.9836677e+00 7.3316641e-02 -8.4177229e+00 
-1.5162879e+01 3.8904469e-01 2.8199524e-01 
-7.9398568e+00 2.0623883e-01 7.1472910e+00 
-1.5744410e+01 6.2566051e+01 -6.9448837e+00 
-7.9251667e+00 -1.1810839e-03 6.9766877e+00 
-7.9241345e+00 2.5820605e-02 7.1120290e+00 
-1.5058558e+01 4.4140807e-01 1.0085274e+00 
-8.9848798e+00 1.1510311e-01 -8.1476156e+00 
-1.5148824e+01 4.0150267e-01 4.3509878e-01 
-1.5072228e+01 1.5945580e+00 3.5334418e+00 
-7.9334607e+00 5.4041336e-02 7.1292781e+00 
-1.5726395e+01 7.0367302e+01 -6.5708460e+00 
-9.0721048e+00 -1.1918252e-01 -8.1942773e+00 
-9.0628462e+00 -9.3602885e-02 -8.3093751e+00 
-7.9427359e+00 8.3460329e-02 7.1608277e+00 
-7.7630618e+00 2.0140207e-01 9.6354378e+00 
-1.5142049e+01 4.2457792e-01 5.8801360e-01 
-9.0560808e+00 -6.5343172e-02 -8.2990145e+00 
-8.9443487e+00 8.7320767e-02 -1.0755519e+01 
-1.5081685e+01 5.5816090e-01 1.1852819e+00 
-7.9528660e+00 1.1404605e-01 7.1926538e+00 
-9.0498027e+00 -3.5303751e-02 -8.3044755e+00 
7.1339937e+00 -5.1785220e+01 -2.9967480e+02 
-1.5142546e+01 4.4235569e-01 7.4132230e-01 
-9.0442304e+00 -3.5296910e-03 -8.3110877e+00 
-7.9637964e+00 1.4573381e-01 7.2212896e+00 
2.5422815e+01 -6.8192759e+01 3.4739494e+02 
-1.5584150e+01 1.4683551e+00 -2.6241834e+00 
-1.5322054e+01 2.8184225e-02 4.8210597e-02 
-9.0392858e+00 2.9845658e-02 -8.3159635e+00 
-1.5109955e+01 1.8431277e-01 1.0733422e+00 
-1.5308233e+01 4.3827369e-01 -6.2636531e-02 
-7.9727531e+00 1.7789237e-01 7.2857041e+00 
-1.5150315e+01 4.6930406e-01 8.9562136e-01 
-1.5277623e+01 3.5190332e-01 1.2696004e-01 
-9.0348297e+00 6.3823102e-02 -8.3591719e+00 
-8.0043089e+00 2.1529867e-01 7.0409195e+00 
-1.5256491e+01 4.0083508e-01 2.8375356e-01 
-1.6009059e+01 6.5231892e+01 -6.8233630e+00 
-7.9818139e+00 7.2012117e-03 6.8830599e+00 
-7.9806887e+00 3.4962887e-02 7.0198266e+00 
-1.5165417e+01 4.5856274e-01 1.0472686e+00 
-1.5186638e+01 1.6356867e+00 3.6453580e+00 
-9.0341965e+00 1.0616039e-01 -8.0816169e+00 
-7.9899343e+00 6.3741661e-02 7.0358050e+00 
-1.5242281e+01 4.1450121e-01 4.4405953e-01 
-7.8257266e+00 2.0871895e-01 9.5819100e+00 
-7.9990610e+00 9.3465432e-02 7.0663323e+00 
-1.5875623e+01 7.3126535e+01 -7.0141082e+00 
-9.1238312e+00 -1.3430389e-01 -8.1466054e+00 
-9.1133996e+00 -1.0798361e-01 -8.2617180e+00 
-1.5235241e+01 4.3883653e-01 6.0419145e-01 
-1.5187750e+01 5.7751265e-01 1.2321079e+00 
-8.9972147e+00 7.8419596e-02 -1.0739630e+01 
-8.0089795e+00 1.2409426e-01 7.0970739e+00 
-9.1051787e+00 -7.8989783e-02 -8.2488020e+00 
6.8625431e+00 -5.4505813e+01 -3.1271758e+02 
-9.0974459e+00 -4.8246353e-02 -8.2520486e+00 
-8.0196411e+00 1.5555552e-01 7.1245349e+00 
-1.5235356e+01 4.5756865e-01 7.6474012e-01 
-9.0904101e+00 -1.5794408e-02 -8.2564990e+00 
2.6195054e+01 -7.1135755e+01 3.6081894e+02 
-1.5664539e+01 1.4953017e+00 -2.6980605e+00 
-1.5215785e+01 1.9559836e-01 1.1217774e+00 
-1.5400551e+01 2.7998406e-02 3.3635080e-02 
-8.0282486e+00 1.8720817e-01 7.1884394e+00 
-1.5387113e+01 4.4701794e-01 -7.5842066e-02 
-9.0840087e+00 1.8236372e-02 -8.2592439e+00 
-1.5242624e+01 4.8544355e-01 9.2631158e-01 
-1.5356505e+01 3.6000060e-01 1.2141740e-01 
-8.0596015e+00 2.2393061e-01 6.9368279e+00 
-9.0781843e+00 5.2844605e-02 -8.3010843e+00 
-1.6268241e+01 6.7915248e+01 -6.7001711e+00 
-1.5335304e+01 4.1094297e-01 2.8521371e-01 
-8.0290612e+00 1.5453885e-02 6.7904210e+00 
-1.5257110e+01 4.7467046e-01 1.0851805e+00 
-8.0278875e+00 4.3932794e-02 6.9287449e+00 
-1.5285509e+01 1.6762020e+00 3.7553962e+00 
-8.0370975e+00 7.3221336e-02 6.9436315e+00 
-1.5320915e+01 4.2587611e-01 4.5261372e-01 
-9.0756618e+00 9.5855727e-02 -8.0161981e+00 
-7.8792594e+00 2.1568127e-01 9.5301059e+00 
-8.0461238e+00 1.0320285e-01 6.9733213e+00 
-1.6007688e+01 7.5899527e+01 -7.4578336e+00 
-1.5313584e+01 4.5157229e-01 6.1985100e-01 
-9.1682659e+00 -1.5124284e-01 -8.0993323e+00 
-8.0558832e+00 1.3383584e-01 7.0031708e+00 
-1.5278624e+01 5.9603087e-01 1.2779665e+00 
-9.1566125e+00 -1.2419004e-01 -8.2144419e+00 
-9.0422024e+00 6.8307836e-02 -1.0723578e+01 
6.5680630e+00 -5.7250219e+01 -3.2583251e+02 
-9.1468849e+00 -9.4446791e-02 -8.1989813e+00 
-8.0663342e+00 1.6504683e-01 7.0296541e+00 
-1.5313296e+01 4.7140338e-01 7.8752434e-01 
-9.1376460e+00 -6.2960617e-02 -8.2000194e+00 
2.6963657e+01 -7.4089016e+01 3.7427966e+02 
-9.1290957e+00 -2.9769074e-02 -8.2023153e+00 
-1.5306401e+01 2.0641470e-01 1.1691942e+00 
-1.5730478e+01 1.5204104e+00 -2.7711604e+00 
-8.0746561e+00 1.9619157e-01 7.0932339e+00 
-1.5464552e+01 2.6313198e-02 1.8937908e-02 
-1.5320040e+01 5.0038289e-01 9.5624897e-01 
-1.5451475e+01 4.5410122e-01 -8.9178087e-02 
-9.1211872e+00 5.0011344e-03 -8.2029404e+00 
-8.1058772e+00 2.3225381e-01 6.8350612e+00 
-1.5420847e+01 3.6645767e-01 1.1563476e-01 
-1.6522010e+01 7.0612964e+01 -6.5752834e+00 
-8.0669363e+00 2.3682075e-02 6.6989177e+00 
-9.1139452e+00 4.0345353e-02 -8.2434192e+00 
-1.5369111e+01 1.7160694e+00 3.8634920e+00 
-1.5399554e+01 4.1943050e-01 2.8633104e-01 
-8.0657722e+00 5.2837819e-02 6.8389257e+00 
-1.5333887e+01 4.8979462e-01 1.1222170e+00 
-8.0750077e+00 8.2592557e-02 6.8528911e+00 
-7.9238249e+00 2.2239883e-01 9.4800295e+00 
-1.5384964e+01 4.3570169e-01 4.6071756e-01 
-8.0839981e+00 1.1279061e-01 6.8819160e+00 
-9.1094835e+00 8.4154473e-02 -7.9513052e+00 
-8.0936678e+00 1.4339438e-01 6.9110506e+00 
-1.5354561e+01 6.1375826e-01 1.3228117e+00 
-1.5377322e+01 4.6286621e-01 6.3494922e-01 
6.2511550e+00 -6.0015454e+01 -3.3900726e+02 
-1.6121692e+01 7.8683970e+01 -7.9019081e+00 
-9.2056768e+00 -1.7005563e-01 -8.0524931e+00 
-9.0795112e+00 5.6949868e-02 -1.0707299e+01 
-9.1927451e+00 -1.4227784e-01 -8.1675679e+00 
-8.1039833e+00 1.7433502e-01 6.9367345e+00 
-9.1814522e+00 -1.1176850e-01 -8.1495610e+00 
-1.5376609e+01 4.8394155e-01 8.0963261e-01 
-9.1706482e+00 -7.9498980e-02 -8.1483845e+00 
-1.5382063e+01 2.1678169e-01 1.2155483e+00 
-8.1120991e+00 2.0497011e-01 7.0001539e+00 
2.7727434e+01 -7.7049899e+01 3.8776586e+02 
-1.5782183e+01 1.5436652e+00 -2.8435260e+00 
-9.1605246e+00 -4.5503994e-02 -8.1485214e+00 
-1.5514282e+01 2.3130334e-02 4.0795103e-03 
-1.5382809e+01 5.1419828e-01 9.8539171e-01 
-1.5501550e+01 4.5954638e-01 -1.0268525e-01 
-8.1432737e+00 2.4039113e-01 6.7356651e+00 
-9.1510510e+00 -9.9081980e-03 -8.1470264e+00 
-1.5470881e+01 3.7131587e-01 1.0957152e-01 
-1.6770488e+01 7.3321915e+01 -6.4487055e+00 
-1.5437713e+01 1.7552736e+00 3.9695921e+00 
-8.0954795e+00 3.2005467e-02 6.6086852e+00 
-8.0943955e+00 6.1799915e-02 6.7504983e+00 
-1.5396000e+01 5.0400023e-01 1.1583368e+00 
-1.5449478e+01 4.2635484e-01 2.8706530e-01 
-9.1423349e+00 2.6279177e-02 -8.1861378e+00 
-7.9595784e+00 2.2898353e-01 9.4316938e+00 
-8.1037306e+00 9.1980984e-02 6.7637047e+00 
-1.5434667e+01 4.4404699e-01 4.6833137e-01 
-8.1127635e+00 1.2235850e-01 6.7922266e+00 
-9.1358769e+00 7.1012307e-02 -7.8868867e+00 
-8.1224270e+00 1.5290299e-01 6.8208097e+00 
-1.5415815e+01 6.3074323e-01 1.3666030e+00 
5.9125089e+00 -6.2798612e+01 -3.5222978e+02 
-1.5426696e+01 4.7279448e-01 6.4944710e-01 
-1.6216701e+01 8.1477642e+01 -8.3462102e+00 
-8.1326952e+00 1.8355453e-01 6.8458565e+00 
-9.2363458e+00 -1.9081071e-01 -8.0061270e+00 
-9.1093470e+00 4.4301359e-02 -1.0690728e+01 
-9.2220710e+00 -1.6231496e-01 -8.1211210e+00 
-1.5425540e+01 4.9526131e-01 8.3102663e-01 
-9.2091456e+00 -1.3102150e-01 -8.1005533e+00 
-1.5443029e+01 2.2672888e-01 1.2608013e+00 
-8.1406971e+00 2.1367623e-01 6.9092619e+00 
-9.1967089e+00 -9.7926104e-02 -8.0971437e+00 
2.8485138e+01 -8.0015837e+01 4.0126646e+02 
-1.5819875e+01 1.5650508e+00 -2.9151938e+00 
-9.1849446e+00 -6.3061513e-02 -8.0951050e+00 
-1.5431180e+01 5.2696449e-01 1.0137023e+00 
-1.5549966e+01 1.8451289e-02 -1.0975017e-02 
-8.1719219e+00 2.4846850e-01 6.6386848e+00 
-1.5537567e+01 4.6337395e-01 -1.1639950e-01 
-9.1738392e+00 -2.6551444e-02 -8.0914773e+00 
-1.5506839e+01 3.7461290e-01 1.0319153e-01 
-1.5491584e+01 1.7938163e+00 4.0736531e+00 
-1.7013865e+01 7.6039018e+01 -6.3204722e+00 
-8.1147387e+00 4.0556315e-02 6.5198466e+00 
-8.1138155e+00 7.0953426e-02 6.6635795e+00 
-1.5443698e+01 5.1735370e-01 1.1935034e+00 
-7.9866654e+00 2.3554921e-01 9.3851186e+00 
-1.5485309e+01 4.3176866e-01 2.8738048e-01 
-9.1635838e+00 1.0588803e-02 -8.1292034e+00 
-8.1233355e+00 1.0152374e-01 6.6761816e+00 
-8.1325011e+00 1.3204622e-01 6.7043523e+00 
-1.5470262e+01 4.5097627e-01 4.7541957e-01 
-9.1550645e+00 5.6374566e-02 -7.8228938e+00 
5.5529022e+00 -6.5596870e+01 -3.6548826e+02 
-8.1422532e+00 1.6250285e-01 6.7325353e+00 
-1.5462640e+01 6.4703906e-01 1.4093050e+00 
-1.5461946e+01 4.8142896e-01 6.6330969e-01 
-8.1525734e+00 1.9284581e-01 6.7570937e+00 
-9.1319226e+00 3.0308634e-02 -1.0673805e+01 
-1.6291747e+01 8.4278415e+01 -8.7906129e+00 
-9.2605700e+00 -2.1358998e-01 -7.9602777e+00 
-1.5460333e+01 5.0543766e-01 8.5167219e-01 
-9.2448778e+00 -1.8438284e-01 -8.0751304e+00 
-1.5489556e+01 2.3629424e-01 1.3049202e+00 
-8.1605638e+00 2.2244649e-01 6.8206167e+00 
-9.2302430e+00 -1.5228588e-01 -8.0519738e+00 
-9.2160961e+00 -1.1832001e-01 -8.0462997e+00 
2.9235473e+01 -8.2984333e+01 4.1477052e+02 
-1.5843772e+01 1.5845523e+00 -2.9861949e+00 
-1.5465399e+01 5.3875504e-01 1.0411474e+00 
-1.5571832e+01 1.2276986e-02 -2.6256520e-02 
-8.1919445e+00 2.5661458e-01 6.5441652e+00 
-9.2026138e+00 -8.2517036e-02 -8.0420562e+00 
-1.5559754e+01 4.6560223e-01 -1.3035263e-01 
-1.5530988e+01 1.8317128e+00 4.1756394e+00 
-1.5528955e+01 3.7638311e-01 9.6462742e-02 
-1.7252410e+01 7.8761226e+01 -6.1906458e+00 
-9.1898001e+00 -4.5001014e-02 -8.0362710e+00 
-8.1247645e+00 4.9477954e-02 6.4325127e+00 
-8.0052203e+00 2.4221160e-01 9.3403281e+00 
-8.1240920e+00 8.0443551e-02 6.5782744e+00 
-1.5477232e+01 5.2992263e-01 1.2276848e+00 
-1.5507284e+01 4.3572050e-01 2.8724465e-01 
-8.1338920e+00 1.1136795e-01 6.5904197e+00 
-9.1779310e+00 -6.7949713e-03 -8.0725820e+00 
-8.1432902e+00 1.4200219e-01 6.6183824e+00 
-1.5491987e+01 4.5654955e-01 4.8195059e-01 
5.1731997e+00 -6.8407485e+01 -3.7877115e+02 
-8.1532355e+00 1.7234221e-01 6.6463066e+00 
-1.5495289e+01 6.6270329e-01 1.4508872e+00 
-9.1672767e+00 4.0175520e-02 -7.7592812e+00 
-1.5483312e+01 4.8883772e-01 6.7650602e-01 
-8.1637161e+00 2.0235469e-01 6.6705140e+00 
-9.1474572e+00 1.4907994e-02 -1.0656475e+01 
-1.6345810e+01 8.7084254e+01 -9.2349849e+00 
-1.5481230e+01 5.1454287e-01 8.7153918e-01 
-1.5521899e+01 2.4552311e-01 1.3478769e+00 
-9.2786617e+00 -2.3849015e-01 -7.9149924e+00 
-8.1718059e+00 2.3142132e-01 6.7342740e+00 
-9.2614670e+00 -2.0857780e-01 -8.0296289e+00 
-9.2450351e+00 -1.7565647e-01 -8.0038415e+00 
-9.2290896e+00 -1.4077325e-01 -7.9958581e+00 
-8.2034554e+00 2.6496080e-01 6.4521500e+00 
-1.5485711e+01 5.4964233e-01 1.0676980e+00 
2.9977085e+01 -8.5952959e+01 4.2826730e+02 
-1.5854098e+01 1.6021554e+00 -3.0565565e+00 
-1.5580109e+01 4.6075085e-03 -4.1792307e-02 
-9.2138012e+00 -1.0396013e-01 -7.9893680e+00 
-1.5556189e+01 1.8689909e+00 4.2755222e+00 
-1.5568341e+01 4.6624723e-01 -1.4457269e-01 
-1.7486473e+01 8.1485535e+01 -6.0593146e+00 
-8.1256065e+00 5.8923782e-02 6.3467828e+00 
-1.5537460e+01 3.7665761e-01 8.9356883e-02 
-8.0153669e+00 2.4908862e-01 9.2973504e+00 
-1.5496849e+01 5.4177568e-01 1.2608531e+00 
-8.1252829e+00 9.0425295e-02 6.4946765e+00 
-9.1991920e+00 -6.5342913e-02 -7.9813883e+00 
-8.1354664e+00 1.2166976e-01 6.5065064e+00 
-1.5515636e+01 4.3825515e-01 2.8662960e-01 
-8.1452057e+00 1.5238263e-01 6.5343971e+00 
-9.1856240e+00 -2.5954192e-02 -8.0162425e+00 
-1.5500078e+01 4.6082297e-01 4.8789664e-01 
4.7743541e+00 -7.1227793e+01 -3.9206714e+02 
-8.1554569e+00 1.8257576e-01 6.5621953e+00 
-1.5514014e+01 6.7779727e-01 1.4913234e+00 
-9.1727511e+00 2.2337529e-02 -7.6960064e+00 
-1.5491035e+01 4.9508541e-01 6.8900895e-01 
-8.1662141e+00 2.1223207e-01 6.5861796e+00 
-1.5540311e+01 2.5446741e-01 1.3896477e+00 
-8.1745213e+00 2.4074496e-01 6.6502860e+00 
-1.5488473e+01 5.2264677e-01 8.9060132e-01 
-9.1561768e+00 -1.9750538e-03 -1.0638682e+01 
-1.6377822e+01 8.9893226e+01 -9.6791915e+00 
-9.2909489e+00 -2.6562406e-01 -7.8703222e+00 
-9.2721549e+00 -2.3501228e-01 -7.9846530e+00 
-9.2538265e+00 -2.0124420e-01 -7.9561789e+00 
-8.2065585e+00 2.7364149e-01 6.3626825e+00 
-1.5492360e+01 5.5969789e-01 1.0933290e+00 
3.0708564e+01 -8.8919353e+01 4.4174620e+02 
-1.5851075e+01 1.6178457e+00 -3.1263020e+00 
-9.2359819e+00 -1.6539418e-01 -7.9458279e+00 
-1.5575024e+01 -4.5581582e-03 -5.7606620e-02 
-1.5567447e+01 1.9056887e+00 4.3732781e+00 
-1.5563559e+01 4.6532266e-01 -1.5908443e-01 
-9.2187870e+00 -1.2749569e-01 -7.9370362e+00 
-1.7716490e+01 8.4208975e+01 -5.9265910e+00 
-8.0172181e+00 2.5630064e-01 9.2562158e+00 
-8.1173099e+00 6.9056640e-02 6.2627447e+00 
-1.5532586e+01 3.7546444e-01 8.1849068e-02 
-8.1174409e+00 1.0106282e-01 6.4128692e+00 
-1.5502796e+01 5.5298263e-01 1.2929847e+00 
-9.2022831e+00 -8.7677832e-02 -7.9268126e+00 
-8.1281193e+00 1.3259377e-01 6.4245202e+00 
-1.5510601e+01 4.3941387e-01 2.8551065e-01 
-8.1383159e+00 1.6335126e-01 6.4524686e+00 
4.3574053e+00 -7.4055207e+01 -4.0536513e+02 
-9.1869195e+00 -4.6984760e-02 -7.9601566e+00 
-1.5494773e+01 4.6384922e-01 4.9323349e-01 
-8.1489933e+00 1.9336449e-01 6.4802666e+00 
-1.5519063e+01 6.9238583e-01 1.5305917e+00 
-1.5485353e+01 5.0023370e-01 7.0079498e-01 
-8.1601501e+00 2.2263395e-01 6.5041482e+00 
-9.1717333e+00 2.7701255e-03 -7.6330303e+00 
-1.5545045e+01 2.6318489e-01 1.4302127e+00 
-8.1687988e+00 2.5056572e-01 6.5687025e+00 
-1.5482305e+01 5.2981719e-01 9.0883610e-01 
-9.1583141e+00 -2.0426643e-02 -1.0620378e+01 
-1.6386650e+01 9.2703505e+01 -1.0123096e+01 
-9.2977764e+00 -2.9512206e-01 -7.8263216e+00 
-9.2772735e+00 -2.6381634e-01 -7.9402425e+00 
-8.2013482e+00 2.8279440e-01 6.2758047e+00 
-9.2569359e+00 -2.2917739e-01 -7.9090115e+00 
-1.5485592e+01 5.6899261e-01 1.1180190e+00 
3.1428436e+01 -9.1881222e+01 4.5519680e+02 
-1.5565022e+01 1.9418535e+00 4.4688888e+00 
-1.5834928e+01 1.6316086e+00 -3.1954522e+00 
-9.2370785e+00 -1.9230824e-01 -7.8962210e+00 
-1.5556809e+01 -1.5222377e-02 -7.3721032e-02 
-1.5545639e+01 4.6283991e-01 -1.7390971e-01 
-8.0108758e+00 2.6397111e-01 9.2169569e+00 
-1.7942987e+01 8.6928614e+01 -5.7926101e+00 
-8.0999127e+00 8.0048557e-02 6.1804764e+00 
-9.2178634e+00 -1.5324520e-01 -7.8850596e+00 
-8.1006115e+00 1.1252918e-01 6.3329263e+00 
-1.5495321e+01 5.6361437e-01 1.3240596e+00 
-1.5514566e+01 3.7282871e-01 7.3917488e-02 
-8.1119033e+00 1.4431284e-01 6.3445307e+00 
-9.1993524e+00 -1.1212235e-01 -7.8725302e+00 
-1.5492412e+01 4.3923471e-01 2.8386630e-01 
-8.1226806e+00 1.7507915e-01 6.3726619e+00 
3.9234813e+00 -7.6887220e+01 -4.1865426e+02 
-1.5476308e+01 4.6567785e-01 4.9794023e-01 
-9.1820836e+00 -6.9997536e-02 -7.9042988e+00 
-8.1339112e+00 2.0487576e-01 6.4005802e+00 
-1.5510686e+01 7.0653698e-01 1.5686739e+00 
-8.1455970e+00 2.3372169e-01 6.4244736e+00 
-1.5466504e+01 5.0434163e-01 7.1184403e-01 
-9.1644773e+00 -1.8630999e-02 -7.5703168e+00 
-1.5536352e+01 2.7173867e-01 1.4695561e+00 
-8.1547175e+00 2.6103645e-01 6.4895706e+00 
-1.5462964e+01 5.3612021e-01 9.2622448e-01 
-9.1541090e+00 -4.0545479e-02 -1.0601514e+01 
-8.1879083e+00 2.9256118e-01 6.1915580e+00 
-1.6371090e+01 9.5513373e+01 -1.0566560e+01 
-9.2995066e+00 -3.2713349e-01 -7.7830490e+00 
-9.2771713e+00 -2.9513900e-01 -7.8964411e+00 
-1.5465647e+01 5.7759693e-01 1.1417503e+00 
-1.5549168e+01 1.9775408e+00 4.5623400e+00 
-9.2546974e+00 -2.5960325e-01 -7.8623686e+00 
3.2135164e+01 -9.4836338e+01 4.6860887e+02 
-1.5805884e+01 1.6434287e+00 -3.2640253e+00 
-1.5525692e+01 -2.7389074e-02 -9.0154805e-02 
-9.2326988e+00 -2.2165943e-01 -7.8470525e+00 
-7.9964316e+00 2.7222706e-01 9.1796073e+00 
-1.8166584e+01 8.9641554e+01 -5.6575280e+00 
-1.5514812e+01 4.5880799e-01 -1.8906778e-01 
-8.0734438e+00 9.2080784e-02 6.1000463e+00 
-8.0748306e+00 1.2500638e-01 6.2549131e+00 
-1.5474666e+01 5.7374295e-01 1.3540617e+00 
-9.2113353e+00 -1.8134813e-01 -7.8334401e+00 
-1.5483632e+01 3.6877267e-01 6.5543085e-02 
-8.0868614e+00 1.5700820e-01 6.2666003e+00 
3.4737986e+00 -7.9721396e+01 -4.3192387e+02 
-9.1906904e+00 -1.3881021e-01 -7.8185303e+00 
-8.0983498e+00 1.8774498e-01 6.2950357e+00 
-1.5461305e+01 4.3775270e-01 2.8167797e-01 
-1.5489128e+01 7.2032180e-01 1.6055554e+00 
-8.1102673e+00 2.1728369e-01 6.3231907e+00 
-1.5444918e+01 4.6635558e-01 5.0199902e-01 
-9.1713925e+00 -9.5119563e-02 -7.8486464e+00 
-8.1226177e+00 2.4566258e-01 6.3472058e+00 
-1.5434727e+01 5.0746597e-01 7.2213921e-01 
-9.1512458e+00 -4.1985126e-02 -7.5078325e+00 
-1.5514478e+01 2.8019678e-01 1.5076649e+00 
-8.1323458e+00 2.7231516e-01 6.4129359e+00 
-1.5430692e+01 5.4162054e-01 9.4275074e-01 
-9.1438091e+00 -6.2443862e-02 -1.0582047e+01 
-8.1663124e+00 3.0308816e-01 6.1099834e+00 
-1.6329859e+01 9.8321229e+01 -1.1009445e+01 
-1.5432768e+01 5.8558111e-01 1.1645085e+00 
-9.2965211e+00 -3.6182816e-01 -7.7405665e+00 
-1.5520139e+01 2.0128131e+00 4.6536211e+00 
-9.2722145e+00 -3.2914992e-01 -7.8532963e+00 
3.2827139e+01 -9.7782538e+01 4.8197237e+02 
-9.2474618e+00 -2.9268944e-01 -7.8162828e+00 
-1.5764170e+01 1.6532900e+00 -3.3320380e+00 
-7.9739663e+00 2.8119990e-01 9.1442021e+00 
-1.5481906e+01 -4.1063942e-02 -1.0692521e-01 
-1.8387999e+01 9.2344926e+01 -5.5215207e+00 
-9.2231778e+00 -2.5361177e-01 -7.7983409e+00 
-8.0379209e+00 1.0534412e-01 6.0215146e+00 
-1.5471310e+01 4.5323354e-01 -2.0457571e-01 
-8.0401231e+00 1.3868566e-01 6.1788876e+00 
-1.5441076e+01 5.8344171e-01 1.3829780e+00 
-8.0530257e+00 1.7086985e-01 6.1907849e+00 
-1.5440019e+01 3.6331584e-01 5.6709259e-02 
-9.1995216e+00 -2.1196338e-01 -7.7821823e+00 
3.0096638e+00 -8.2555376e+01 -4.4516351e+02 
-8.0653624e+00 2.0153553e-01 6.2196435e+00 
-1.5417512e+01 4.3500010e-01 2.7892974e-01 
-9.1765999e+00 -1.6789378e-01 -7.7648048e+00 
-8.0781071e+00 2.3076972e-01 6.2481486e+00 
-1.5454637e+01 7.3381429e-01 1.6412251e+00 
-1.5400839e+01 4.6592662e-01 5.0539484e-01 
-9.1551335e+00 -1.2249541e-01 -7.7931794e+00 
-8.0912639e+00 2.5863048e-01 6.2723922e+00 
-1.5390258e+01 5.0966150e-01 7.3166661e-01 
-9.1323112e+00 -6.7427744e-02 -7.4455468e+00 
-1.5479673e+01 2.8863180e-01 1.5445299e+00 
-8.1017413e+00 2.8456580e-01 6.3388422e+00 
-1.5385725e+01 5.4638177e-01 9.5840226e-01 
-8.1366232e+00 3.1452712e-01 6.0311215e+00 
-9.1276704e+00 -8.6248829e-02 -1.0561936e+01 
-1.5478189e+01 2.0477395e+00 4.7427253e+00 
-1.5387195e+01 5.9301545e-01 1.1862824e+00 
-1.6261580e+01 1.0112560e+02 -1.1451610e+01 
-9.2892222e+00 -3.9939806e-01 -7.6989407e+00 
-7.9435504e+00 2.9102616e-01 9.1107775e+00 
-9.2627889e+00 -3.6604097e-01 -7.8108595e+00 
3.3502678e+01 -1.0071773e+02 4.9527741e+02 
-1.5710013e+01 1.6611755e+00 -3.3995050e+00 
-9.2355978e+00 -3.2862572e-01 -7.7707907e+00 
-1.5425682e+01 -5.6254607e-02 -1.2404782e-01 
-1.8608054e+01 9.5035891e+01 -5.3847832e+00 
-7.9933486e+00 1.2003942e-01 5.9449338e+00 
-7.9965012e+00 1.5376807e-01 6.1049010e+00 
-1.5394794e+01 5.9278533e-01 1.4107990e+00 
-1.5415365e+01 4.4612078e-01 -2.2044856e-01 
-9.2088666e+00 -2.8835105e-01 -7.7501081e+00 
-8.0104155e+00 1.8609708e-01 6.1171348e+00 
2.5324750e+00 -8.5386872e+01 -4.5836295e+02 
-1.5383957e+01 3.5647512e-01 4.7401582e-02 
-9.1827559e+00 -2.4527093e-01 -7.7312942e+00 
-8.0237450e+00 2.1664630e-01 6.1465342e+00 
-1.5361268e+01 4.3100656e-01 2.7560809e-01 
-9.1573973e+00 -1.9954557e-01 -7.7113485e+00 
-1.5407455e+01 7.4709130e-01 1.6756751e+00 
-8.0374641e+00 2.4552339e-01 6.1755012e+00 
-1.5344306e+01 4.6443289e-01 5.0811527e-01 
-8.0515758e+00 2.7280670e-01 6.2000780e+00 
-9.1336059e+00 -1.5228863e-01 -7.7378806e+00 
-1.5333333e+01 5.1098135e-01 7.4041512e-01 
-1.5432181e+01 2.9712064e-01 1.5801449e+00 
-8.0629505e+00 2.9795914e-01 6.2673322e+00 
-9.1079565e+00 -9.5111914e-02 -7.3834317e+00 
-1.5328304e+01 5.5046667e-01 9.7316938e-01 
-8.0988927e+00 3.2703623e-01 5.9550126e+00 
-9.1059579e+00 -1.1210339e-01 -1.0541142e+01 
-1.5423568e+01 2.0823950e+00 4.8296489e+00 
-1.5329167e+01 5.9997049e-01 1.2070640e+00 
-7.9052437e+00 3.0184835e-01 9.0793708e+00 
-1.6164774e+01 1.0392514e+02 -1.1892917e+01 
-9.2780346e+00 -4.4005912e-01 -7.6582427e+00 
-9.2493013e+00 -4.0602812e-01 -7.7691867e+00 
3.4160017e+01 -1.0363988e+02 5.0851432e+02 
-1.5643644e+01 1.6670665e+00 -3.4664403e+00 
-1.8827681e+01 9.7711631e+01 -5.2475284e+00 
-7.9397177e+00 1.3637835e-01 5.8703502e+00 
-1.5357253e+01 -7.2970774e-02 -1.4153680e-01 
-9.2194937e+00 -3.6762578e-01 -7.7259327e+00 
-7.9439633e+00 1.7046520e-01 6.0329989e+00 
-1.5336060e+01 6.0185002e-01 1.4375182e+00 
-1.5347209e+01 4.3747151e-01 -2.3669978e-01 
-9.1901346e+00 -3.2608656e-01 -7.7023795e+00 
2.0437240e+00 -8.8213668e+01 -4.7151215e+02 
-7.9590370e+00 2.0289936e-01 6.0456954e+00 
-1.5315682e+01 3.4826486e-01 3.7607530e-02 
-7.9735112e+00 2.3328241e-01 6.0757528e+00 
-9.1613886e+00 -2.8147361e-01 -7.6807871e+00 
-1.5292807e+01 4.2579935e-01 2.7170162e-01 
-1.5347827e+01 7.6023252e-01 1.7089006e+00 
-7.9883592e+00 2.6174321e-01 6.1052928e+00 
-9.1334138e+00 -2.3396000e-01 -7.6581590e+00 
-1.5275555e+01 4.6191432e-01 5.1015026e-01 
-8.0035812e+00 2.8838091e-01 6.1303066e+00 
-9.1071221e+00 -1.8468343e-01 -7.6827351e+00 
-1.5264189e+01 5.1147727e-01 7.4837621e-01 
-1.5372247e+01 3.0574433e-01 1.6145066e+00 
-8.0160080e+00 3.1267381e-01 6.1984481e+00 
-9.0784763e+00 -1.2520979e-01 -7.3214613e+00 
-1.5258664e+01 5.5393749e-01 9.8704523e-01 
-8.0531618e+00 3.4078097e-01 5.8816978e+00 
-9.0789470e+00 -1.4016793e-01 -1.0519628e+01 
-1.5356526e+01 2.1168602e+00 4.9143916e+00 
-1.5258924e+01 6.0651723e-01 1.2268482e+00 
-7.8590956e+00 3.1381588e-01 9.0500207e+00 
-1.6037846e+01 1.0671864e+02 -1.2333223e+01 
-9.2634077e+00 -4.8405307e-01 -7.6185489e+00 
3.4797303e+01 -1.0654704e+02 5.2167361e+02 
-1.5565292e+01 1.6709430e+00 -3.5328565e+00 
-1.9047925e+01 1.0036935e+02 -5.1099868e+00 
-9.2321815e+00 -4.4935332e-01 -7.7283385e+00 
-7.8770032e+00 1.5458426e-01 5.7978039e+00 
-1.5276852e+01 -9.1224345e-02 -1.5940518e-01 
-7.8824930e+00 1.8900007e-01 5.9632221e+00 
-1.5265115e+01 6.1071357e-01 1.4631324e+00 
-9.1995592e+00 -4.0992923e-01 -7.6817535e+00 
1.5449996e+00 -9.1033617e+01 -4.8460126e+02 
-1.5267076e+01 4.2728513e-01 -2.5334141e-01 
-7.8988818e+00 2.2149717e-01 5.9765083e+00 
-9.1673711e+00 -3.6705312e-01 -7.6551846e+00 
-1.5235425e+01 3.3869702e-01 2.7316205e-02 
-7.9146608e+00 2.5165952e-01 6.0073414e+00 
-9.1357879e+00 -3.2079908e-01 -7.6306752e+00 
-1.5212362e+01 4.1940355e-01 2.6720082e-01 
-7.9308001e+00 2.7963777e-01 6.0375658e+00 
-1.5275993e+01 7.7332048e-01 1.7409003e+00 
-9.1049970e+00 -2.7135525e-01 -7.6052369e+00 
-1.5194818e+01 4.5840909e-01 5.1149192e-01 
-7.9472955e+00 3.0555230e-01 6.0631204e+00 
-9.0760094e+00 -2.1988644e-01 -7.6277306e+00 
-1.5183061e+01 5.1119988e-01 7.5554374e-01 
-1.5300114e+01 3.1458788e-01 1.6476151e+00 
-7.9609364e+00 3.2889733e-01 6.1322319e+00 
-9.0441780e+00 -1.5791432e-01 -7.2596120e+00 
-1.5177042e+01 5.5685616e-01 1.0000256e+00 
-7.9994599e+00 3.5593526e-01 5.8112185e+00 
-1.5277310e+01 2.1512209e+00 4.9969566e+00 
-9.0469241e+00 -1.7062173e-01 -1.0497361e+01 
-1.5176704e+01 6.1272739e-01 1.2456326e+00 
-7.8051444e+00 3.2708604e-01 9.0227674e+00 
-1.9269950e+01 1.0300626e+02 -4.9724059e+00 
-1.5879069e+01 1.0950504e+02 -1.2772385e+01 
-9.2458176e+00 -5.3164958e-01 -7.5799409e+00 
3.5412589e+01 -1.0943731e+02 5.3474594e+02 
-7.8051640e+00 1.7489318e-01 5.7273306e+00 
-1.5475189e+01 1.6727832e+00 -3.5987659e+00 
-9.2118850e+00 -4.9628668e-01 -7.6883807e+00 
-7.8120578e+00 2.0960816e-01 5.8956069e+00 
-1.5182198e+01 6.1945555e-01 1.4876412e+00 
-1.5184713e+01 -1.1102950e-01 -1.7766514e-01 
1.0379900e+00 -9.3844645e+01 -4.9762065e+02 
-9.1762278e+00 -4.5580376e-01 -7.6383025e+00 
-7.8299262e+00 2.4212312e-01 5.9096117e+00 
-1.5175198e+01 4.1555865e-01 -2.7038445e-01 
-9.1409872e+00 -4.1151323e-01 -7.6085565e+00 
-7.8471786e+00 2.7200501e-01 5.9413396e+00 
-1.5143420e+01 3.2778125e-01 1.6518052e-02 
-9.1063425e+00 -3.6350195e-01 -7.5809766e+00 
-7.8647802e+00 2.9942681e-01 5.9723611e+00 
-1.5192196e+01 7.8644056e-01 1.7716757e+00 
-1.5120167e+01 4.1184224e-01 2.6209782e-01 
-9.0725127e+00 -3.1197540e-01 -7.5525857e+00 
-7.8827205e+00 3.2453064e-01 5.9985610e+00 
-1.5102331e+01 4.5395385e-01 5.1213426e-01 
-1.5216026e+01 3.2374021e-01 1.6794738e+00 
-9.0406113e+00 -2.5812874e-01 -7.5728573e+00 
-7.8977457e+00 3.4682728e-01 6.0687255e+00 
-1.5090183e+01 5.1019897e-01 7.6191381e-01 
-9.0053835e+00 -1.9344106e-01 -7.1978623e+00 
-7.9378047e+00 3.7268249e-01 5.7436169e+00 
-1.5083674e+01 5.5928460e-01 1.0121087e+00 
-1.5186169e+01 2.1855679e+00 5.0773503e+00 
-9.0101885e+00 -2.0366468e-01 -1.0474307e+01 
-7.7434176e+00 3.4182499e-01 8.9976528e+00 
-1.5082743e+01 6.1867355e-01 1.2634178e+00 
-1.9495047e+01 1.0561961e+02 -4.8350498e+00 
-7.7241412e+00 1.9755494e-01 5.6589613e+00 
5.2448798e-01 -9.6644743e+01 -5.1056087e+02 
3.6003824e+01 -1.1230888e+02 5.4772221e+02 
-7.7326086e+00 2.3253851e-01 5.8301867e+00 
-1.5686573e+01 1.1228345e+02 -1.3210257e+01 
-1.5087549e+01 6.2815742e-01 1.5110474e+00 
-1.5373567e+01 1.6725634e+00 -3.6641803e+00 
-9.2257705e+00 -5.8314840e-01 -7.5425067e+00 
-1.5081070e+01 -1.3240273e-01 -1.9632836e-01 
-9.1888949e+00 -5.4712871e-01 -7.6493847e+00 
-7.7521305e+00 2.6502310e-01 5.8450410e+00 
-1.5071810e+01 4.0228678e-01 -2.8783911e-01 
-9.1499594e+00 -5.0554743e-01 -7.5956342e+00 
-7.7710343e+00 2.9455910e-01 5.8777854e+00 
-1.5039901e+01 3.1552508e-01 5.2045551e-03 
-9.1114183e+00 -4.5975946e-01 -7.5625332e+00 
-7.7902784e+00 3.2134245e-01 5.9097184e+00 
-1.5096676e+01 7.9968107e-01 1.8012317e+00 
-1.5016455e+01 4.0313674e-01 2.5638611e-01 
-9.0734630e+00 -4.0986614e-01 -7.5317131e+00 
-7.8098442e+00 3.4553759e-01 5.9366701e+00 
-1.4998328e+01 4.4858403e-01 5.1207301e-01 
-9.0363470e+00 -3.5609274e-01 -7.5002120e+00 
-1.5120224e+01 3.3329407e-01 1.7100892e+00 
-7.8264329e+00 3.6667252e-01 6.0079720e+00 
-1.4985791e+01 5.0852375e-01 7.6748457e-01 
-9.0012894e+00 -2.9966811e-01 -7.5181079e+00 
-7.8682016e+00 3.9121674e-01 5.6789370e+00 
-1.4978795e+01 5.6128492e-01 1.0232953e+00 
-8.9624311e+00 -2.3203035e-01 -7.1361924e+00 
-1.5083349e+01 2.2199969e+00 5.1555829e+00 
-7.6739312e+00 3.5820884e-01 8.9747209e+00 
-1.4977277e+01 6.2442941e-01 1.2802070e+00 
-8.9690539e+00 -2.3951920e-01 -1.0450436e+01 
-1.9724642e+01 1.0820662e+02 -4.6981998e+00 
-7.6338580e+00 2.2283440e-01 5.5927236e+00 
6.3946166e-03 -9.9431975e+01 -5.2341268e+02 
-7.6440785e+00 2.5805499e-01 5.7669916e+00 
-1.4981404e+01 6.3690266e-01 1.5333567e+00 
3.6568845e+01 -1.1516002e+02 5.6059345e+02 
-1.5260660e+01 1.6702579e+00 -3.7291117e+00 
-1.5458327e+01 1.1505315e+02 -1.3646688e+01 
-7.6654378e+00 2.9045749e-01 5.7828299e+00 
-1.4966161e+01 -1.5536291e-01 -2.1540635e-01 
-9.2038047e+00 -6.3888180e-01 -7.5063408e+00 
-9.1637252e+00 -6.0221277e-01 -7.6114279e+00 
-1.4957146e+01 3.8746201e-01 -3.0571522e-01 
-7.6861813e+00 3.1957617e-01 5.8167151e+00 
-9.1212423e+00 -5.5949126e-01 -7.5538083e+00 
-1.4925102e+01 3.0193406e-01 -6.6320954e-03 
-9.0791267e+00 -5.1211699e-01 -7.5171571e+00 
-7.7072581e+00 3.4563055e-01 5.8496771e+00 
-1.4989672e+01 8.1313331e-01 1.8295765e+00 
-1.4901461e+01 3.9330681e-01 2.5006020e-01 
-9.0375851e+00 -4.6020756e-01 -7.4829105e+00 
-7.7286399e+00 3.6880798e-01 5.8774895e+00 
-1.4883040e+01 4.4233405e-01 5.1130532e-01 
-8.9969085e+00 -4.0401034e-01 -7.4481257e+00 
-1.5012949e+01 3.4334603e-01 1.7394716e+00 
-7.7469810e+00 3.8865448e-01 5.9500150e+00 
-1.4870117e+01 5.0622307e-01 7.7225600e-01 
-8.9584258e+00 -3.4479148e-01 -7.4634777e+00 
-7.7906432e+00 4.1174395e-01 5.6172241e+00 
-1.4862639e+01 5.6291966e-01 1.0335883e+00 
-8.9156770e+00 -2.7394958e-01 -7.0745846e+00 
-1.4969096e+01 2.2546080e+00 5.2316685e+00 
-7.5966891e+00 3.7642475e-01 8.9540178e+00 
-1.4860543e+01 6.3006992e-01 1.2960062e+00 
-8.9238501e+00 -2.7843236e-01 -1.0425719e+01 
-5.1427462e-01 -1.0220447e+02 -5.3616701e+02 
-1.9960300e+01 1.1076455e+02 -4.5621537e+00 
-7.5342185e+00 2.5101260e-01 5.5286424e+00 
-7.5463827e+00 2.8643746e-01 5.7060497e+00 
-1.4863999e+01 6.4577693e-01 1.5545780e+00 
3.7105366e+01 -1.1798905e+02 5.7335092e+02 
-1.5136705e+01 1.6658389e+00 -3.7935723e+00 
-7.5697741e+00 3.1870246e-01 5.7230103e+00 
-1.4840221e+01 -1.7993118e-01 -2.3491089e-01 
-1.5192119e+01 1.1781360e+02 -1.4081523e+01 
-9.1804946e+00 -6.9921707e-01 -7.4715448e+00 
-1.4831442e+01 3.7107470e-01 -3.2402263e-01 
-7.5925562e+00 3.4732605e-01 5.7581647e+00 
-9.1369239e+00 -6.6190776e-01 -7.5745945e+00 
-9.0905971e+00 -6.1800191e-01 -7.5128907e+00 
-1.4799257e+01 2.8701200e-01 -1.8999392e-02 
-7.6156667e+00 3.7255197e-01 5.7922766e+00 
-1.4871422e+01 8.2689158e-01 1.8567219e+00 
-9.0446044e+00 -5.6894648e-01 -7.4724760e+00 
-1.4775417e+01 3.8237090e-01 2.4311536e-01 
-7.6390659e+00 3.9459113e-01 5.8210617e+00 
-8.9991717e+00 -5.1487688e-01 -7.4345988e+00 
-1.4756703e+01 4.3523759e-01 5.0982951e-01 
-1.4894442e+01 3.5399649e-01 1.7676346e+00 
-8.9546312e+00 -4.5606495e-01 -7.3963403e+00 
-7.6593592e+00 4.1300845e-01 5.8948997e+00 
-1.4743394e+01 5.0334575e-01 7.7622974e-01 
-8.9124256e+00 -3.9381775e-01 -7.4089645e+00 
-7.7051088e+00 4.3448323e-01 5.5585256e+00 
-1.4735441e+01 5.6425206e-01 1.0429927e+00 
-1.4843655e+01 2.2895063e+00 5.3056254e+00 
-8.8654981e+00 -3.1949584e-01 -7.0130230e+00 
-7.5116830e+00 3.9667205e-01 8.9355927e+00 
-1.4732773e+01 6.3567152e-01 1.3108239e+00 
-8.8749250e+00 -3.2067823e-01 -1.0400126e+01 
-1.0353840e+00 -1.0496043e+02 -5.4881500e+02 
-2.0203737e+01 1.1329063e+02 -4.4272267e+00 
-7.4251070e+00 2.8238810e-01 5.4667401e+00 
-7.4394170e+00 3.1798311e-01 5.6473874e+00 
-1.4735572e+01 6.5486813e-01 1.5747232e+00 
3.7610969e+01 -1.2079440e+02 5.8598604e+02 
-7.4650467e+00 3.5005127e-01 5.6656133e+00 
-1.5001939e+01 1.6592766e+00 -3.8575756e+00 
-1.4703490e+01 -2.0613097e-01 -2.5485451e-01 
-1.4885541e+01 1.2056447e+02 -1.4514596e+01 
-7.4900780e+00 3.7809539e-01 5.7021695e+00 
-9.1564534e+00 -7.6455921e-01 -7.4382281e+00 
-1.4694935e+01 3.5311330e-01 -3.4277166e-01 
-9.1090762e+00 -7.2662085e-01 -7.5389756e+00 
-1.4662601e+01 2.7076116e-01 -3.1904957e-02 
-9.0585793e+00 -6.8148468e-01 -7.4729535e+00 
-7.5154351e+00 4.0238404e-01 5.7375566e+00 
-1.4742163e+01 8.4105332e-01 1.8826829e+00 
-9.0083764e+00 -6.3064711e-01 -7.4285433e+00 
-1.4638558e+01 3.7034648e-01 2.3554715e-01 
-7.5410646e+00 4.2315232e-01 5.7674304e+00 
-8.9587165e+00 -5.7426275e-01 -7.3868131e+00 
-1.4619548e+01 4.2732791e-01 5.0764475e-01 
-1.4764941e+01 3.6534964e-01 1.7945960e+00 
-7.5635213e+00 4.3998501e-01 5.8426731e+00 
-8.9099771e+00 -5.1263012e-01 -7.3448731e+00 
-1.4605856e+01 4.9994079e-01 7.7940882e-01 
-7.6115636e+00 4.5966809e-01 5.5028915e+00 
-8.8637193e+00 -4.4710088e-01 -7.3545694e+00 
-1.4597431e+01 5.6534621e-01 1.0515157e+00 
-1.4707271e+01 2.3248013e+00 5.3774763e+00 
-8.8122942e+00 -3.6899883e-01 -6.9514937e+00 
-7.4188910e+00 4.1916344e-01 8.9194975e+00 
-1.4594201e+01 6.4131224e-01 1.3246714e+00 
-8.8226474e+00 -3.6656059e-01 -1.0373631e+01 
-1.5546703e+00 -1.0769813e+02 -5.6134799e+02 
-2.0456827e+01 1.1578213e+02 -4.2937514e+00 
-7.3063882e+00 3.1727812e-01 5.4070376e+00 
-7.3230581e+00 3.5300764e-01 5.5910300e+00 
-1.4596356e+01 6.6426660e-01 1.5938075e+00 
-7.3511445e+00 3.8481556e-01 5.6106693e+00 
3.8083088e+01 -1.2357459e+02 5.9849042e+02 
-1.4856605e+01 1.6505390e+00 -3.9211363e+00 
-1.4556209e+01 -2.3398780e-01 -2.7525110e-01 
-7.3786478e+00 4.1218900e-01 5.6487652e+00 
-1.4547862e+01 3.3356457e-01 -3.6197374e-01 
-1.4535966e+01 1.2330563e+02 -1.4945731e+01 
-9.1323373e+00 -8.3535375e-01 -7.4065081e+00 
-9.0808077e+00 -7.9680050e-01 -7.5046701e+00 
-7.4064765e+00 4.3542191e-01 5.6855575e+00 
-1.4602133e+01 8.5571908e-01 1.9074784e+00 
-1.4515371e+01 2.5318257e-01 -4.5357080e-02 
-9.0257832e+00 -7.5038657e-01 -7.4340759e+00 
-1.4491117e+01 3.5725028e-01 2.2735099e-01 
-7.4345617e+00 4.5477419e-01 5.7166406e+00 
-8.9710041e+00 -6.9765989e-01 -7.3854187e+00 
-8.9167472e+00 -6.3879525e-01 -7.3395939e+00 
-1.4471808e+01 4.1863811e-01 5.0475064e-01 
-1.4624685e+01 3.7751348e-01 1.8203780e+00 
-7.4594054e+00 4.6985141e-01 5.7933844e+00 
-8.8634396e+00 -5.7411974e-01 -7.2937459e+00 
-1.4457734e+01 4.9605763e-01 7.8179738e-01 
-7.5099579e+00 4.8754786e-01 5.4503743e+00 
-8.8127662e+00 -5.0503337e-01 -7.3002966e+00 
-1.4560188e+01 2.3606071e+00 5.4472488e+00 
-1.4448843e+01 5.6626731e-01 1.0591662e+00 
-7.3182773e+00 4.4412620e-01 8.9057877e+00 
-8.7564914e+00 -4.2282419e-01 -6.8899853e+00 
-1.4445061e+01 6.4707191e-01 1.3375621e+00 
-2.0697350e+00 -1.1041590e+02 -5.7375751e+02 
-8.7674098e+00 -4.1641590e-01 -1.0346209e+01 
-2.0721609e+01 1.1823627e+02 -4.1620781e+00 
-7.1779062e+00 3.5601971e-01 5.3495544e+00 
-7.1971632e+00 3.9184650e-01 5.5370022e+00 
-1.4446585e+01 6.7406508e-01 1.6118492e+00 
-7.2279371e+00 4.2332661e-01 5.5582086e+00 
3.8519003e+01 -1.2632820e+02 6.1085587e+02 
-1.4700946e+01 1.6395924e+00 -3.9842720e+00 
-7.2581479e+00 4.4993121e-01 5.5979875e+00 
-1.4398621e+01 -2.6352918e-01 -2.9611667e-01 
-1.4390465e+01 3.1241380e-01 -3.8164208e-01 
-1.4140525e+01 1.2603721e+02 -1.5374739e+01 
-7.2886862e+00 4.7198001e-01 5.6363209e+00 
-1.4451567e+01 8.7099261e-01 1.9311314e+00 
-9.1088485e+00 -9.1208956e-01 -7.3765105e+00 
-9.0527889e+00 -8.7293942e-01 -7.4717847e+00 
-1.4357803e+01 2.3427638e-01 -5.9365351e-02 
-8.9928453e+00 -8.2519962e-01 -7.3963447e+00 
-7.3194657e+00 4.8975820e-01 5.6687391e+00 
-1.4333330e+01 3.4309868e-01 2.1852161e-01 
-8.9330890e+00 -7.7047121e-01 -7.3431687e+00 
-1.4473912e+01 3.9059984e-01 1.8450068e+00 
-1.4313716e+01 4.0920148e-01 5.0114682e-01 
-7.3469332e+00 5.0289303e-01 5.7470850e+00 
-8.8738292e+00 -7.0894958e-01 -7.2929875e+00 
-8.8155472e+00 -6.4099193e-01 -7.2429857e+00 
-1.4299259e+01 4.9174647e-01 7.8340035e-01 
-7.4002261e+00 5.1838903e-01 5.4010296e+00 
-1.4402648e+01 2.3970424e+00 5.5149759e+00 
-8.7600580e+00 -5.6805010e-01 -7.2461544e+00 
-1.4289906e+01 5.6708185e-01 1.0659546e+00 
-7.2097909e+00 4.7180338e-01 8.8945224e+00 
-8.6985451e+00 -4.8137717e-01 -6.8284889e+00 
-1.4285582e+01 6.5303219e-01 1.3495124e+00 
-2.5780355e+00 -1.1311217e+02 -5.8603528e+02 
-8.7096313e+00 -4.7061666e-01 -1.0317837e+01 
-2.1000302e+01 1.2065031e+02 -4.0325754e+00 
-7.0394853e+00 3.9897079e-01 5.2943101e+00 
-7.0615693e+00 4.3485587e-01 5.4853285e+00 
-1.4286490e+01 6.8435888e-01 1.6288700e+00 
-7.0952746e+00 4.6593647e-01 5.5082618e+00 
3.8915816e+01 -1.2905396e+02 6.2307439e+02 
-7.1284418e+00 4.9166709e-01 5.5498733e+00 
-1.4535212e+01 1.6264011e+00 -4.0470032e+00 
-1.4230974e+01 -2.9478431e-01 -3.1747021e-01 
-1.4222985e+01 2.8964522e-01 -4.0179254e-01 
-7.1619410e+00 5.1239340e-01 5.5898894e+00 
-1.4290697e+01 8.8698083e-01 1.9536687e+00 
-1.3696081e+01 1.2875961e+02 -1.5801409e+01 
-9.0867394e+00 -9.9530180e-01 -7.3483696e+00 
-1.4190136e+01 2.1404217e-01 -7.3941431e-02 
-9.0257380e+00 -9.5557775e-01 -7.4404348e+00 
-7.1956669e+00 5.2842607e-01 5.6237746e+00 
-8.9604485e+00 -9.0646427e-01 -7.3598550e+00 
-1.4165430e+01 3.2790810e-01 2.0905240e-01 
-8.8952768e+00 -8.4961653e-01 -7.3018678e+00 
-1.4312858e+01 4.0472430e-01 1.8685139e+00 
-7.2260087e+00 5.3941485e-01 5.7038289e+00 
-1.4145504e+01 3.9905187e-01 4.9683238e-01 
-8.8305694e+00 -7.8525017e-01 -7.2470476e+00 
-1.4130662e+01 4.8705850e-01 7.8422308e-01 
-8.7668675e+00 -7.1375327e-01 -7.1926252e+00 
-7.2822859e+00 5.5247667e-01 5.3549165e+00 
-1.4234894e+01 2.4342301e+00 5.5806962e+00 
-8.7061226e+00 -6.3663267e-01 -7.1921557e+00 
-1.4120851e+01 5.6785777e-01 1.0718927e+00 
-7.0933646e+00 5.0245510e-01 8.8857645e+00 
-8.6389443e+00 -5.4510677e-01 -6.7669990e+00 
-1.4115995e+01 6.5927677e-01 1.3605406e+00 
-3.0768751e+00 -1.1578541e+02 -5.9817319e+02 
-8.6497618e+00 -5.2957521e-01 -1.0288493e+01 
-2.1295312e+01 1.2302146e+02 -3.9056299e+00 
-6.8909303e+00 4.4651090e-01 5.2413241e+00 
-6.9160944e+00 4.8241355e-01 5.4360339e+00 
-1.4116303e+01 6.9524579e-01 1.6448947e+00 
-6.9529880e+00 5.1301892e-01 5.4608600e+00 
-6.9893735e+00 5.3776364e-01 5.5044599e+00 
3.9270444e+01 -1.3175066e+02 6.3513817e+02 
-1.4359658e+01 1.6109280e+00 -4.1093554e+00 
-1.4053519e+01 -3.2778388e-01 -3.3933481e-01 
-7.0260987e+00 5.5701906e-01 5.5463070e+00 
-1.4119757e+01 9.0379374e-01 1.9751215e+00 
-1.4045668e+01 2.6524236e-01 -4.2244465e-01 
-1.3199208e+01 1.3147349e+02 -1.6225509e+01 
-9.0668155e+00 -1.0855746e+00 -7.3222284e+00 
-1.4012611e+01 1.9247949e-01 -8.9099974e-02 
-9.0004253e+00 -1.0453060e+00 -7.4107445e+00 
-7.0630368e+00 5.7112124e-01 5.5817975e+00 
-8.9293258e+00 -9.9477282e-01 -7.3247104e+00 
-1.3987655e+01 3.1169542e-01 1.9893459e-01 
-8.8582613e+00 -9.3568434e-01 -7.2615989e+00 
-1.4141758e+01 4.2000621e-01 1.8909358e+00 
-7.0965174e+00 5.7974297e-01 5.6636727e+00 
-1.3967406e+01 3.8822399e-01 4.9180530e-01 
-8.7876211e+00 -8.6827494e-01 -7.2018356e+00 
-7.1560367e+00 5.9011585e-01 5.3120971e+00 
-1.3952174e+01 4.8204618e-01 7.8427083e-01 
-8.7180116e+00 -7.9296345e-01 -7.1427043e+00 
-1.4057166e+01 2.4722978e+00 5.6444544e+00 
-8.6515287e+00 -7.1131422e-01 -7.1383194e+00 
-6.9689134e+00 5.3635974e-01 8.8795811e+00 
-1.3941907e+01 5.6866467e-01 1.0769936e+00 
-8.5782155e+00 -6.1451049e-01 -6.7055143e+00 
-1.3936527e+01 6.6589131e-01 1.3706674e+00 
-3.5633918e+00 -1.1843420e+02 -6.1016335e+02 
-2.1609240e+01 1.2534695e+02 -3.7816467e+00 
-8.5882863e+00 -5.9374802e-01 -1.0258160e+01 
-6.7320274e+00 4.9904169e-01 5.1906170e+00 
-1.3936253e+01 7.0682608e-01 1.6599519e+00 
-6.7605380e+00 5.3491949e-01 5.3891441e+00 
-6.8008894e+00 5.6497021e-01 5.4160353e+00 
-6.8407681e+00 5.8861069e-01 5.4617859e+00 
3.9579596e+01 -1.3441725e+02 6.4703962e+02 
-1.4174545e+01 1.5931348e+00 -4.1713605e+00 
-1.3866510e+01 -3.6255963e-01 -3.6173903e-01 
-6.8809974e+00 6.0623710e-01 5.5056191e+00 
-1.3938978e+01 9.2154441e-01 1.9955257e+00 
-1.3858763e+01 2.3918854e-01 -4.4362289e-01 
-1.3825469e+01 1.6958829e-01 -1.0485972e-01 
-1.2646156e+01 1.3417984e+02 -1.6646776e+01 
-6.9214275e+00 6.1821024e-01 5.5428603e+00 
-9.0499386e+00 -1.1835438e+00 -7.2982377e+00 
-8.9776759e+00 -1.1427681e+00 -7.3828468e+00 
-1.3800242e+01 2.9447844e-01 1.8815637e-01 
-8.9002638e+00 -1.0907727e+00 -7.2910245e+00 
-1.3960846e+01 4.3656853e-01 1.9123146e+00 
-6.9583255e+00 6.2422601e-01 5.6266756e+00 
-8.8227887e+00 -1.0293200e+00 -7.2224548e+00 
-1.3779654e+01 3.7675387e-01 4.8606168e-01 
-8.7456877e+00 -9.5865991e-01 -7.1574226e+00 
-7.0213588e+00 6.3163309e-01 5.2726371e+00 
-1.3764023e+01 4.7676352e-01 7.8354829e-01 
-8.6696390e+00 -8.7924035e-01 -7.0932717e+00 
-1.3869702e+01 2.5113772e+00 5.7063019e+00 
-6.8363330e+00 5.7381526e-01 8.8760433e+00 
-1.3753301e+01 5.6957389e-01 1.0812708e+00 
-8.5968907e+00 -7.9268469e-01 -7.0846717e+00 
-4.0345470e+00 -1.2105717e+02 -6.2199805e+02 
-1.3747406e+01 6.7296350e-01 1.3799156e+00 
-8.5169283e+00 -6.9013955e-01 -6.6440395e+00 
-2.1944900e+01 1.2762401e+02 -3.6610481e+00 
-6.5625467e+00 5.5698700e-01 5.1422114e+00 
-8.5257298e+00 -6.6364056e-01 -1.0226825e+01 
-6.5946823e+00 5.9279595e-01 5.3446864e+00 
-1.3746566e+01 7.1920241e-01 1.6740731e+00 
-6.6387731e+00 6.2220943e-01 5.3738206e+00 
-6.6824320e+00 6.4462158e-01 5.4218906e+00 
3.9839756e+01 -1.3705277e+02 6.5877138e+02 
-1.3980142e+01 1.5729822e+00 -4.2330585e+00 
-6.7264563e+00 6.6045173e-01 5.4678719e+00 
-1.3748588e+01 9.4034874e-01 2.0149216e+00 
-1.3670211e+01 -3.9914405e-01 -3.8471855e-01 
-1.3662522e+01 2.1146739e-01 -4.6535823e-01 
-6.7706712e+00 6.7008388e-01 5.5070167e+00 
-1.3628957e+01 1.4536947e-01 -1.2124484e-01 
-1.2032822e+01 1.3688001e+02 -1.7064910e+01 
-9.0370288e+00 -1.2898987e+00 -7.2765559e+00 
-8.9583728e+00 -1.2486635e+00 -7.3568835e+00 
-1.3603429e+01 2.7627639e-01 1.7670183e-01 
-1.3770352e+01 4.5453773e-01 1.9326986e+00 
-6.8112786e+00 6.7323655e-01 5.5928989e+00 
-8.8741065e+00 -1.1951698e+00 -7.2589208e+00 
-8.7896616e+00 -1.1312298e+00 -7.1845392e+00 
-1.3582480e+01 3.6467920e-01 4.7959491e-01 
-6.8781115e+00 6.7737775e-01 5.2366055e+00 
-8.7055282e+00 -1.0571039e+00 -7.1138908e+00 
-1.3566439e+01 4.7126634e-01 7.8205895e-01 
-1.3672741e+01 2.5516042e+00 5.7662969e+00 
-8.6224623e+00 -9.7326543e-01 -7.0443866e+00 
-6.6954980e+00 6.1514035e-01 8.8752261e+00 
-1.3555259e+01 5.7065866e-01 1.0847384e+00 
-8.5428740e+00 -8.8139672e-01 -7.0312481e+00 
-4.4871111e+00 -1.2365306e+02 -6.3366975e+02 
-1.3548856e+01 6.8058304e-01 1.3883100e+00 
-8.4557007e+00 -7.7260482e-01 -6.5825864e+00 
-2.2305322e+01 1.2984985e+02 -3.5442729e+00 
-6.3822450e+00 6.2079231e-01 5.0961324e+00 
-6.4182952e+00 6.5648707e-01 5.3026900e+00 
-1.3547468e+01 7.3247969e-01 1.6872937e+00 
-8.4626635e+00 -7.3981281e-01 -1.0194484e+01 
-6.4664174e+00 6.8517833e-01 5.3342499e+00 
-6.5141543e+00 7.0623343e-01 5.3848137e+00 
4.0047163e+01 -1.3965643e+02 6.7032629e+02 
-1.3776729e+01 1.5504311e+00 -4.2945009e+00 
-6.5622755e+00 7.2009191e-01 5.4331123e+00 
-1.3548814e+01 9.6032528e-01 2.0333548e+00 
-1.3464889e+01 -4.3756993e-01 -4.0831825e-01 
-1.3457203e+01 1.8206340e-01 -4.8768994e-01 
-6.6105797e+00 7.2715839e-01 5.4743214e+00 
-1.3423322e+01 1.1982542e-01 -1.3828642e-01 
-1.1354718e+01 1.3957571e+02 -1.7479561e+01 
-9.0290655e+00 -1.4053838e+00 -7.2573473e+00 
-1.3570507e+01 4.7404360e-01 1.9521423e+00 
-1.3397456e+01 2.5711041e-01 1.6454963e-01 
-8.9434583e+00 -1.3637494e+00 -7.3330049e+00 
-6.6552011e+00 7.2717247e-01 5.5624055e+00 
-8.8517577e+00 -1.3087306e+00 -7.2285337e+00 
-1.3376119e+01 3.5203974e-01 4.7239475e-01 
-8.7597426e+00 -1.2421844e+00 -7.1479686e+00 
-6.7261320e+00 7.2772347e-01 5.2040737e+00 
-8.6679608e+00 -1.1643732e+00 -7.0713358e+00 
-1.3359650e+01 4.6561246e-01 7.7980444e-01 
-1.3466517e+01 2.5931185e+00 5.8245052e+00 
-8.5772529e+00 -1.0757895e+00 -6.9961213e+00 
-6.5462596e+00 6.6067566e-01 8.8772073e+00 
-1.3348005e+01 5.7199413e-01 1.0874104e+00 
-8.4902011e+00 -9.7817213e-01 -6.9780964e+00 
-4.9176494e+00 -1.2622068e+02 -6.4517109e+02 
-1.3341101e+01 6.8884149e-01 1.3958768e+00 
-8.3952057e+00 -8.6258351e-01 -6.5211772e+00 
-2.2693769e+01 1.3202168e+02 -3.4317741e+00 
-6.1908703e+00 6.9092337e-01 5.0524091e+00 
-1.3339181e+01 7.4676482e-01 1.6996524e+00 
-6.2311339e+00 7.2645766e-01 5.2631861e+00 
-8.3997114e+00 -8.2288562e-01 -1.0161139e+01 
-6.2835877e+00 7.5434057e-01 5.2973582e+00 
-6.3357084e+00 7.7390680e-01 5.3505952e+00 
-6.3882372e+00 7.8561167e-01 5.4013864e+00 
-1.3339880e+01 9.8159492e-01 2.0508757e+00 
4.0197787e+01 -1.4222759e+02 6.8169747e+02 
-1.3564596e+01 1.5254421e+00 -4.3557535e+00 
-1.3250821e+01 -4.7786994e-01 -4.3259468e-01 
-1.3243071e+01 1.5096250e-01 -5.1066783e-01 
-6.4409451e+00 7.8987617e-01 5.4448286e+00 
-1.3208816e+01 9.2960562e-02 -1.5602434e-01 
-1.3361537e+01 4.9521904e-01 1.9707073e+00 
-1.0606933e+01 1.4226906e+02 -1.7890321e+01 
-6.4898953e+00 7.8645810e-01 5.5352588e+00 
-9.0270860e+00 -1.5307990e+00 -7.2407798e+00 
-1.3182563e+01 2.3700399e-01 1.5167169e-01 
-8.9339346e+00 -1.4888411e+00 -7.3113691e+00 
-8.8341827e+00 -1.4322846e+00 -7.2000092e+00 
-1.3160803e+01 3.3887760e-01 4.6444626e-01 
-6.5652332e+00 7.8306939e-01 5.1751150e+00 
-8.7339574e+00 -1.3630221e+00 -7.1128735e+00 
-8.6338681e+00 -1.2813063e+00 -7.0298691e+00 
-1.3251262e+01 2.6360633e+00 5.8809999e+00 
-1.3143883e+01 4.5986192e-01 7.7678386e-01 
-6.3884433e+00 7.1078492e-01 8.8820672e+00 
-8.5348465e+00 -1.1876385e+00 -6.9485645e+00 
-1.3131763e+01 5.7365741e-01 1.0893003e+00 
-8.4396581e+00 -1.0838088e+00 -6.9252799e+00 
-5.3225058e+00 -1.2875893e+02 -6.5649487e+02 
-1.3124360e+01 6.9783219e-01 1.4026442e+00 
-8.3361783e+00 -9.6082666e-01 -6.4598476e+00 
-2.3113743e+01 1.3413676e+02 -3.3240145e+00 
-5.9881684e+00 7.6786390e-01 5.0110756e+00 
-1.3121926e+01 7.6216650e-01 1.7111913e+00 
-6.0329503e+00 8.0319104e-01 5.2262089e+00 
-8.3375582e+00 -9.1354793e-01 -1.0126811e+01 
-6.0900406e+00 8.3017993e-01 5.2631810e+00 
-6.1468555e+00 8.4812468e-01 5.3192738e+00 
-6.2041078e+00 8.5748977e-01 5.3727388e+00 
-1.3122006e+01 1.0042805e+00 2.0675403e+00 
4.0287307e+01 -1.4476577e+02 6.9287834e+02 
-1.3344047e+01 1.4979774e+00 -4.4169008e+00 
-1.3028294e+01 -5.2007633e-01 -4.5761914e-01 
-1.3020393e+01 1.1815251e-01 -5.3435490e-01 
-6.2615396e+00 8.5870619e-01 5.4185908e+00 
-1.2985693e+01 6.4781744e-02 -1.7450935e-01 
-1.3143666e+01 5.1819979e-01 1.9884624e+00 
-6.3151407e+00 8.5154518e-01 5.5115205e+00 
-9.7840980e+00 1.4496268e+02 -1.8296705e+01 
-1.2958995e+01 2.1598332e-01 1.3803155e-01 
-9.0321816e+00 -1.6669985e+00 -7.2270223e+00 
-8.9308609e+00 -1.6248120e+00 -7.2921408e+00 
-8.8224080e+00 -1.5667244e+00 -7.1735051e+00 
-1.2936765e+01 3.2523749e-01 4.5572871e-01 
-6.3952027e+00 8.4384145e-01 5.1498029e+00 
-8.7132964e+00 -1.4946508e+00 -7.0794010e+00 
-1.3027206e+01 2.6805847e+00 5.9358617e+00 
-1.2919364e+01 4.5407706e-01 7.7299304e-01 
-8.6042000e+00 -1.4088177e+00 -6.9896216e+00 
-6.2218463e+00 7.6585600e-01 8.8898860e+00 
-8.4961480e+00 -1.3097199e+00 -6.9018258e+00 
-1.2906754e+01 5.7572750e-01 1.0904207e+00 
-5.6977846e+00 -1.3126682e+02 -6.6763407e+02 
-8.3921010e+00 -1.1991884e+00 -6.8728821e+00 
-1.2898853e+01 7.0765004e-01 1.4086417e+00 
-8.2794235e+00 -1.0681675e+00 -6.3986512e+00 
-2.3568994e+01 1.3619232e+02 -3.2214619e+00 
-5.7738920e+00 8.5211181e-01 4.9721721e+00 
-5.8234990e+00 8.8718552e-01 5.1917954e+00 
-1.2895920e+01 7.7879489e-01 1.7219563e+00 
-5.8855304e+00 9.1319746e-01 5.2317536e+00 
-8.2769580e+00 -1.0125652e+00 -1.0091534e+01 
-5.9473492e+00 9.2939042e-01 5.2908858e+00 
-6.0096407e+00 9.3622862e-01 5.3472097e+00 
-1.2895414e+01 1.0285066e+00 2.0834103e+00 
4.0311078e+01 -1.4727071e+02 7.0386259e+02 
-1.3115402e+01 1.4680005e+00 -4.4780514e+00 
-1.2797601e+01 -5.6422064e-01 -4.8348140e-01 
-6.0721179e+00 9.3414387e-01 5.3956559e+00 
-1.2789446e+01 8.3623535e-02 -5.5883039e-01 
-1.2754212e+01 3.5298471e-02 -1.9380539e-01 
-1.2917117e+01 5.4312411e-01 2.0054844e+00 
-6.1306943e+00 9.2291347e-01 5.4912490e+00 
-1.2726996e+01 1.9407740e-01 1.2358269e-01 
-8.8803416e+00 1.4765963e+02 -1.8698130e+01 
-9.0454905e+00 -1.8148872e+00 -7.2162403e+00 
-8.9353489e+00 -1.7725903e+00 -7.2754889e+00 
-6.2158008e+00 9.1049333e-01 5.1282087e+00 
-1.2704240e+01 3.1116679e-01 4.4621450e-01 
-8.8175182e+00 -1.7130044e+00 -7.1491918e+00 
-8.6988145e+00 -1.6380494e+00 -7.0477170e+00 
-1.2794575e+01 2.7268314e+00 5.9891792e+00 
-1.2686318e+01 4.4832246e-01 7.6842393e-01 
-8.5799766e+00 -1.5479017e+00 -6.9507475e+00 
-6.0462340e+00 8.2630187e-01 8.9007419e+00 
-8.4621367e+00 -1.4430279e+00 -6.8560399e+00 
-1.2673199e+01 5.7828524e-01 1.0907834e+00 
-6.0393312e+00 -1.3374345e+02 -6.7858179e+02 
-8.3484630e+00 -1.3252842e+00 -6.8210128e+00 
-1.2664797e+01 7.1839133e-01 1.4139000e+00 
-8.2258246e+00 -1.1855310e+00 -6.3376656e+00 
-2.4063532e+01 1.3818568e+02 -3.1245795e+00 
-5.5478127e+00 9.4417385e-01 4.9357465e+00 
-5.6025473e+00 9.7894930e-01 5.1599860e+00 
-1.2661380e+01 7.9676133e-01 1.7319970e+00 
-5.6698175e+00 1.0039070e+00 5.2031101e+00 
-8.2187443e+00 -1.1207889e+00 -1.0055374e+01 
-5.7369422e+00 1.0182243e+00 5.2654627e+00 
-5.8045811e+00 1.0223521e+00 5.3248328e+00 
-1.2660318e+01 1.0543988e+00 2.0985532e+00 
4.0264107e+01 -1.4974234e+02 7.1464430e+02 
-1.2878999e+01 1.4354776e+00 -4.5393447e+00 
-1.2559051e+01 -6.1033383e-01 -5.1029415e-01 
-5.8724193e+00 1.0167102e+00 5.3760640e+00 
-1.2550513e+01 4.7367944e-02 -5.8419347e-01 
-1.2514636e+01 4.5227684e-03 -2.1399231e-01 
-1.2682108e+01 5.7013255e-01 2.0218583e+00 
-5.9362911e+00 1.0010709e+00 5.4744948e+00 
-1.2486811e+01 1.7131787e-01 1.0826677e-01 
-7.8892520e+00 1.5036357e+02 -1.9093893e+01 
-9.0681842e+00 -1.9754153e+00 -7.2085903e+00 
-6.0267592e+00 9.8350735e-01 5.1103984e+00 
-8.9485519e+00 -1.9331536e+00 -7.2615848e+00 
-1.2463459e+01 2.9671526e-01 4.3586811e-01 
-8.8206500e+00 -1.8721373e+00 -7.1272524e+00 
-1.2553592e+01 2.7749538e+00 6.0410478e+00 
-8.6916283e+00 -1.7942657e+00 -7.0180089e+00 
-1.2444970e+01 4.4266479e-01 7.6306422e-01 
-5.8613373e+00 8.9256144e-01 8.9147067e+00 
-8.5622886e+00 -1.6996338e+00 -6.9134293e+00 
-1.2431315e+01 5.8141307e-01 1.0903988e+00 
-8.4338696e+00 -1.5886494e+00 -6.8113743e+00 
-6.3427105e+00 -1.3618805e+02 -6.8933126e+02 
-8.3097608e+00 -1.4631693e+00 -6.7698148e+00 
-1.2422407e+01 7.3015355e-01 1.4184521e+00 
-8.1763522e+00 -1.3139440e+00 -6.2770000e+00 
-2.4601629e+01 1.4011420e+02 -3.0338148e+00 
-5.3097373e+00 1.0445580e+00 4.9018556e+00 
-1.2418521e+01 8.1617816e-01 1.7413674e+00 
-5.3698901e+00 1.0789932e+00 5.1308232e+00 
-5.4426808e+00 1.1028289e+00 5.1772815e+00 
-8.1638409e+00 -1.2391682e+00 -1.0018428e+01 
-5.5153956e+00 1.1151586e+00 5.2430283e+00 
-5.5886731e+00 1.1164022e+00 5.3056305e+00 
-1.2416935e+01 1.0820837e+00 2.1130429e+00 
4.0141019e+01 -1.5218084e+02 7.2521794e+02 
-1.2635194e+01 1.4003777e+00 -4.6009594e+00 
-5.6621720e+00 1.1069497e+00 5.3598430e+00 
-1.2312962e+01 -6.5844670e-01 -5.3819835e-01 
-1.2303883e+01 9.3799394e-03 -6.1056737e-01 
-1.2438857e+01 5.9936775e-01 2.0376781e+00 
-5.7316455e+00 1.0865531e+00 5.4612965e+00 
-1.2267229e+01 -2.7531526e-02 -2.3516870e-01 
-1.2238686e+01 1.4773828e-01 9.2011894e-02 
-5.8277806e+00 1.0633949e+00 5.0964280e+00 
-6.8038335e+00 1.5307871e+02 -1.9483133e+01 
-9.1014475e+00 -2.1495674e+00 -7.2042123e+00 
-8.9716497e+00 -2.1075197e+00 -7.2505976e+00 
-1.2214656e+01 2.8193445e-01 4.2464534e-01 
-1.2304477e+01 2.8251030e+00 6.0915697e+00 
-8.8329804e+00 -2.0451864e+00 -7.1078824e+00 
-8.6929094e+00 -1.9644128e+00 -6.9904889e+00 
-5.6668495e+00 9.6510031e-01 8.9318403e+00 
-1.2195542e+01 4.3717231e-01 7.5689725e-01 
-8.5522951e+00 -1.8651706e+00 -6.8778832e+00 
-1.2181319e+01 5.8519483e-01 1.0892770e+00 
-8.4124842e+00 -1.7477674e+00 -6.7680358e+00 
-6.6031835e+00 -1.3859998e+02 -6.9987581e+02 
-8.2771003e+00 -1.6140250e+00 -6.7194739e+00 
-1.2171897e+01 7.4303531e-01 1.4223329e+00 
-8.1320732e+00 -1.4545469e+00 -6.2168045e+00 
-2.5187821e+01 1.4197533e+02 -2.9495818e+00 
-5.0595295e+00 1.1537635e+00 4.8705657e+00 
-1.2167555e+01 8.3715868e-01 1.7501262e+00 
-5.1253685e+00 1.1878208e+00 5.1043520e+00 
-5.2039334e+00 1.2104812e+00 5.1542928e+00 
-5.2824924e+00 1.2207301e+00 5.2235945e+00 
-8.1132733e+00 -1.3687627e+00 -9.9808407e+00 
-5.3616692e+00 1.2189334e+00 5.2896093e+00 
-1.2165479e+01 1.1116885e+00 2.1269602e+00 
3.9936015e+01 -1.5458666e+02 7.3557845e+02 
-5.4411000e+00 1.2054274e+00 5.3470019e+00 
-1.2384365e+01 1.3626734e+00 -4.6631231e+00 
-1.2059662e+01 -7.0859109e-01 -5.6736966e-01 
-1.2049850e+01 -3.0345707e-02 -6.3810417e-01 
-1.2187583e+01 6.3097440e-01 2.0530473e+00 
-5.5164551e+00 1.1799220e+00 5.4516736e+00 
-1.2012258e+01 -6.0850344e-02 -2.5745491e-01 
-1.1982866e+01 1.2337248e-01 7.4731103e-02 
-5.6185382e+00 1.1506965e+00 5.0863370e+00 
-5.6164640e+00 1.5580990e+02 -1.9864793e+01 
-9.1464502e+00 -2.3383482e+00 -7.2032208e+00 
-1.1958060e+01 2.6687640e-01 4.1249300e-01 
-9.0058237e+00 -2.2967317e+00 -7.2426901e+00 
-1.2047450e+01 2.8774301e+00 6.1408525e+00 
-8.8557080e+00 -2.2332535e+00 -7.0912895e+00 
-5.4624228e+00 1.0444114e+00 8.9521838e+00 
-8.7038717e+00 -2.1496605e+00 -6.9653973e+00 
-1.1938256e+01 4.3191405e-01 7.4990255e-01 
-8.5512172e+00 -2.0457467e+00 -6.8443666e+00 
-1.1923429e+01 5.8971541e-01 1.0874282e+00 
-6.8156810e+00 -1.4097872e+02 -7.1020883e+02 
-8.3991971e+00 -1.9216638e+00 -6.7262810e+00 
-1.1913483e+01 7.5713634e-01 1.4255813e+00 
-8.2516814e+00 -1.7791490e+00 -6.6702292e+00 
-2.5826911e+01 1.4376667e+02 -2.8722389e+00 
-4.7971369e+00 1.2722670e+00 4.8419538e+00 
-8.0941591e+00 -1.6086064e+00 -6.1572815e+00 
-4.8688944e+00 1.3059154e+00 5.0806173e+00 
-1.1908699e+01 8.5981735e-01 1.7583383e+00 
-4.9534443e+00 1.3273675e+00 5.1341597e+00 
-5.0380547e+00 1.3354704e+00 5.2071558e+00 
-8.0681814e+00 -1.5107585e+00 -9.9428173e+00 
-5.1233443e+00 1.3305055e+00 5.2767522e+00 
-1.1906167e+01 1.1433413e+00 2.1403939e+00 
-5.2089322e+00 1.3127236e+00 5.3375236e+00 
3.9642839e+01 -1.5696057e+02 7.4572132e+02 
-1.2126910e+01 1.3223408e+00 -4.7261256e+00 
-1.1799491e+01 -7.6080196e-01 -5.9802588e-01 
-1.1788712e+01 -7.1816089e-02 -6.6699012e-01 
-1.1928504e+01 6.6509956e-01 2.0680796e+00 
-5.2904060e+00 1.2817637e+00 5.4456183e+00 
-1.1749986e+01 -9.5422238e-02 -2.8099612e-01 
-1.1719593e+01 9.8251998e-02 5.6321254e-02 
-5.3986776e+00 1.2459815e+00 5.0801403e+00 
-4.3188553e+00 1.5856265e+02 -2.0237563e+01 
-1.1782730e+01 2.9320851e+00 6.1890074e+00 
-1.1693899e+01 2.5159147e-01 3.9934933e-01 
-9.2043051e+00 -2.5427608e+00 -7.2056931e+00 
-9.0522225e+00 -2.5018372e+00 -7.2380120e+00 
-5.2476665e+00 1.1310157e+00 8.9757488e+00 
-8.8900260e+00 -2.4374599e+00 -7.0776926e+00 
-1.1673330e+01 4.2695853e-01 7.4205740e-01 
-8.7257514e+00 -2.3512210e+00 -6.9430064e+00 
-8.5603256e+00 -2.2426665e+00 -6.8131849e+00 
-6.9747754e+00 -1.4332394e+02 -7.2032377e+02 
-1.1657860e+01 5.9506036e-01 1.0848654e+00 
-8.3952995e+00 -2.1117185e+00 -6.6864264e+00 
-1.1647382e+01 7.7255791e-01 1.4282421e+00 
-8.2347993e+00 -1.9599615e+00 -6.6223869e+00 
-2.6523960e+01 1.4548597e+02 -2.8020584e+00 
-4.5226271e+00 1.4005058e+00 4.8161069e+00 
-8.0638937e+00 -1.7775287e+00 -6.0987009e+00 
-1.1642172e+01 8.8427066e-01 1.7660768e+00 
-4.6004827e+00 1.4337234e+00 5.0596619e+00 
-4.6911657e+00 1.4539620e+00 5.1168835e+00 
-4.7819671e+00 1.4598925e+00 5.1936822e+00 
-8.0298304e+00 -1.6664857e+00 -9.9046413e+00 
-4.8735136e+00 1.4516727e+00 5.2670105e+00 
-1.1639223e+01 1.1771717e+00 2.1534421e+00 
-4.9654163e+00 1.4294272e+00 5.3313541e+00 
3.9254725e+01 -1.5930366e+02 7.5564265e+02 
-1.1863252e+01 1.2793588e+00 -4.7903334e+00 
-1.1532794e+01 -8.1512105e-01 -6.3043576e-01 
-1.1661847e+01 7.0189348e-01 2.0829002e+00 
-1.1520765e+01 -1.1504428e-01 -6.9745140e-01 
-5.0531810e+00 1.3926841e+00 5.4430844e+00 
-1.1480675e+01 -1.3124305e-01 -3.0596507e-01 
-5.1678204e+00 1.3498468e+00 5.0778171e+00 
-1.1449103e+01 7.2401657e-02 3.6662708e-02 
-1.1510541e+01 2.9892157e+00 6.2361476e+00 
-1.1422394e+01 2.3612502e-01 3.8514563e-01 
-2.9020160e+00 1.6134317e+02 -2.0599816e+01 
-9.2760120e+00 -2.7637771e+00 -7.2116550e+00 
-9.1119133e+00 -2.7238583e+00 -7.2366922e+00 
-5.0221462e+00 1.2254626e+00 9.0025046e+00 
-8.9370817e+00 -2.6589200e+00 -7.0673194e+00 
-1.1400982e+01 4.2237181e-01 7.3333972e-01 
-8.7597773e+00 -2.5703276e+00 -6.9236234e+00 
-7.0746492e+00 -1.4563547e+02 -7.3021405e+02 
-8.5809209e+00 -2.4572902e+00 -6.7847005e+00 
-1.1384831e+01 6.0131547e-01 1.0816077e+00 
-8.4021460e+00 -2.3194050e+00 -6.6488609e+00 
-1.1373816e+01 7.8940364e-01 1.4303697e+00 
-8.2278421e+00 -2.1580113e+00 -6.5763356e+00 
-2.7284275e+01 1.4713126e+02 -2.7391867e+00 
-4.2362319e+00 1.5388560e+00 4.7931210e+00 
-4.3202915e+00 1.5716327e+00 5.0415218e+00 
-1.1368204e+01 9.1063869e-01 1.7734262e+00 
-8.0426770e+00 -1.9628744e+00 -6.0414163e+00 
-4.4171694e+00 1.5906894e+00 5.1024442e+00 
-4.5142076e+00 1.5944735e+00 5.1831102e+00 
-7.9996222e+00 -1.8374406e+00 -9.8666961e+00 
-4.6120584e+00 1.5829701e+00 5.2602920e+00 
-1.1364881e+01 1.2133125e+00 2.1662146e+00 
-4.7103379e+00 1.5561250e+00 5.3283900e+00 
3.8764351e+01 -1.6161741e+02 7.6533925e+02 
-1.1593830e+01 1.2337078e+00 -4.8562081e+00 
-1.1259920e+01 -8.7160240e-01 -6.6492902e-01 
-1.1387851e+01 7.4151119e-01 2.0976469e+00 
-4.8044736e+00 1.5133035e+00 5.4439736e+00 
-1.1246303e+01 -1.6005583e-01 -7.2976028e-01 
-1.1204575e+01 -1.6832312e-01 -3.3256446e-01 
-4.9255716e+00 1.4629153e+00 5.0792968e+00 
-1.1171621e+01 4.5833005e-02 1.5620228e-02 
-1.1231119e+01 3.0489669e+00 6.2823852e+00 
-1.1143761e+01 2.2051235e-01 3.6980963e-01 
-1.3562224e+00 1.6415838e+02 -2.0949521e+01 
-4.7853851e+00 1.3283310e+00 9.0323608e+00 
-9.3623822e+00 -3.0022982e+00 -7.2210642e+00 
-9.1858154e+00 -2.9637514e+00 -7.2388288e+00 
-8.9979220e+00 -2.8987031e+00 -7.0604038e+00 
-1.1121426e+01 4.1821470e-01 7.2373316e-01 
-8.8071271e+00 -2.8082028e+00 -6.9075940e+00 
-7.1090609e+00 -1.4791337e+02 -7.3987305e+02 
-8.6143016e+00 -2.6910114e+00 -6.7593410e+00 
-1.1104564e+01 6.0856639e-01 1.0776862e+00 
-8.4211355e+00 -2.5462788e+00 -6.6140596e+00 
-1.1093019e+01 8.0778106e-01 1.4320341e+00 
-8.2322817e+00 -2.3749769e+00 -6.5325636e+00 
-2.8113392e+01 1.4870087e+02 -2.6835950e+00 
-3.9384026e+00 1.6876051e+00 4.7730975e+00 
-4.0286730e+00 1.7199462e+00 5.0262209e+00 
-1.1087040e+01 9.3904795e-01 1.7804874e+00 
-8.0320259e+00 -2.1663725e+00 -5.9858848e+00 
-4.1316919e+00 1.7378997e+00 5.0907918e+00 
-4.2348863e+00 1.7396322e+00 5.1753316e+00 
-7.9791018e+00 -2.0253107e+00 -9.8294893e+00 
-4.3389585e+00 1.7248951e+00 5.2564486e+00 
-1.1083395e+01 1.2519026e+00 2.1788363e+00 
-4.4435463e+00 1.6933889e+00 5.3284634e+00 
3.8163771e+01 -1.6390374e+02 7.7480876e+02 
-1.1319098e+01 1.1853661e+00 -4.9243277e+00 
-1.0981212e+01 -9.3032070e-01 -7.0190776e-01 
-1.1106775e+01 7.8411537e-01 2.1124726e+00 
-4.5440064e+00 1.6442486e+00 5.4481180e+00 
-1.0965601e+01 -2.0689853e-01 -7.6424139e-01 
-1.0921918e+01 -2.0669781e-01 -3.6102818e-01 
-4.6715315e+00 1.5858326e+00 5.0844412e+00 
-1.0887357e+01 1.8534735e-02 -6.9542754e-03 
-1.0944717e+01 3.1114798e+00 6.3278279e+00 
-1.0858201e+01 2.0477155e-01 3.5327136e-01 
-4.5368697e+00 1.4402305e+00 9.0651457e+00 
3.2900018e-01 1.6701588e+02 -2.1284145e+01 
-9.4639400e+00 -3.2591017e+00 -7.2337907e+00 
-9.2746129e+00 -3.2223534e+00 -7.2444769e+00 
-1.0834873e+01 4.1453887e-01 7.1323507e-01 
-9.0734180e+00 -3.1577824e+00 -7.0571804e+00 
-7.0713074e+00 -1.5015796e+02 -7.4929407e+02 
-8.8688665e+00 -3.0660139e+00 -6.8953041e+00 
-1.0817285e+01 6.1689827e-01 1.0731531e+00 
-8.6617185e+00 -2.9452230e+00 -6.7376075e+00 
-8.4536791e+00 -2.7939582e+00 -6.5825974e+00 
-1.0805238e+01 8.2780428e-01 1.4333296e+00 
-8.2496564e+00 -2.6126639e+00 -6.4916779e+00 
-2.9017044e+01 1.5019355e+02 -2.6350160e+00 
-3.6298779e+00 1.8469199e+00 4.7561374e+00 
-1.0798948e+01 9.6963591e-01 1.7873854e+00 
-3.7262361e+00 1.8788493e+00 5.0137619e+00 
-3.8351914e+00 1.8958373e+00 5.0818357e+00 
-8.0335670e+00 -2.3899348e+00 -5.9326895e+00 
-3.9442969e+00 1.8957012e+00 5.1701804e+00 
-4.0543353e+00 1.8778840e+00 5.2552598e+00 
-1.0795050e+01 1.2930915e+00 2.1914529e+00 
-7.9699607e+00 -2.2320041e+00 -9.7936822e+00 
-4.1649903e+00 1.8417582e+00 5.3313236e+00 
3.7444350e+01 -1.6616505e+02 7.8404975e+02 
-1.1039516e+01 1.1343054e+00 -4.9954112e+00 
-1.0818917e+01 8.2988092e-01 2.1275484e+00 
-1.0696998e+01 -9.9138322e-01 -7.4185911e-01 
-4.2715585e+00 1.7861418e+00 5.4552604e+00 
-1.0678913e+01 -2.5565647e-01 -8.0127772e-01 
-1.0632910e+01 -2.4644267e-01 -3.9162111e-01 
-4.4053151e+00 1.7192637e+00 5.0930229e+00 
-1.0596494e+01 -9.5408720e-03 -3.1216335e-02 
-1.0651625e+01 3.1768922e+00 6.3725756e+00 
-1.0565902e+01 1.8889339e-01 3.3547260e-01 
-4.2760613e+00 1.5618036e+00 9.1005789e+00 
2.1648796e+00 1.6992396e+02 -2.1600520e+01 
-9.5807941e+00 -3.5347748e+00 -7.2495951e+00 
-9.3786393e+00 -3.5003121e+00 -7.2536347e+00 
-1.0541529e+01 4.1138165e-01 7.0186862e-01 
-9.1641653e+00 -3.4369675e+00 -7.0578777e+00 
-6.9541820e+00 -1.5236986e+02 -7.5847026e+02 
-8.9458666e+00 -3.3448120e+00 -6.8871788e+00 
-1.0523232e+01 6.2639562e-01 1.0680951e+00 
-8.7243090e+00 -3.2212689e+00 -6.7200808e+00 
-8.5011528e+00 -3.0640929e+00 -6.5551619e+00 
-1.0510748e+01 8.4959822e-01 1.4343879e+00 
-8.2815384e+00 -2.8729949e+00 -6.4544234e+00 
-3.0001124e+01 1.5160858e+02 -2.5928683e+00 
-3.3117651e+00 2.0168073e+00 4.7423321e+00 
-3.4139228e+00 2.0483712e+00 5.0041157e+00 
-1.0504236e+01 1.0025581e+00 1.7942807e+00 
-3.5284178e+00 2.0646041e+00 5.0754316e+00 
-8.0490192e+00 -2.6356689e+00 -5.8825624e+00 
-3.6429786e+00 2.0628926e+00 5.1674174e+00 
-3.7585074e+00 2.0422825e+00 5.2564151e+00 
-1.0500182e+01 1.3370472e+00 2.2042391e+00 
-7.9740291e+00 -2.4596842e+00 -9.7601214e+00 
-3.8747643e+00 2.0017166e+00 5.3366163e+00 
3.6596676e+01 -1.6840428e+02 7.9306179e+02 
-1.0755540e+01 1.0804827e+00 -5.0703470e+00 
-1.0524626e+01 8.7900192e-01 2.1430687e+00 
-3.9870039e+00 1.9395866e+00 5.4650299e+00 
-1.0407573e+01 -1.0549466e+00 -7.8536887e-01 
-1.0386449e+01 -3.0646985e-01 -8.4131582e-01 
-1.0337711e+01 -2.8769435e-01 -4.2463653e-01 
-4.1265808e+00 1.8638879e+00 5.1046997e+00 
-1.0299181e+01 -3.8496619e-02 -5.7319830e-02 
-1.0352185e+01 3.2453398e+00 6.4167161e+00 
-4.0024166e+00 1.6937290e+00 9.1382379e+00 
-1.0267028e+01 1.7282767e-01 3.1638104e-01 
4.1633749e+00 1.7289146e+02 -2.1894703e+01 
-9.7124770e+00 -3.8296286e+00 -7.2681050e+00 
-1.0241595e+01 4.0875908e-01 6.8970046e-01 
-9.4977311e+00 -3.7979963e+00 -7.2662264e+00 
-6.7499297e+00 -1.5455008e+02 -7.6739461e+02 
-9.2703538e+00 -3.7368152e+00 -7.0627068e+00 
-9.0386924e+00 -3.6454505e+00 -6.8836781e+00 
-1.0222658e+01 6.3714261e-01 1.0626524e+00 
-8.8030072e+00 -3.5203760e+00 -6.7074234e+00 
-1.0209858e+01 8.7330493e-01 1.4353975e+00 
-8.5648280e+00 -3.3583164e+00 -6.5325630e+00 
-8.3294851e+00 -3.1579881e+00 -6.4216994e+00 
-3.1071630e+01 1.5294591e+02 -2.5561660e+00 
-2.9856367e+00 2.1970688e+00 4.7317495e+00 
-3.0930991e+00 2.2283393e+00 4.9972067e+00 
-1.0203269e+01 1.0379982e+00 1.8013861e+00 
-3.2124983e+00 2.2441141e+00 5.0713661e+00 
-8.0801609e+00 -2.9058868e+00 -5.8364084e+00 
-3.3317956e+00 2.2412565e+00 5.1667133e+00 
-3.4520609e+00 2.2183098e+00 5.2594945e+00 
-1.0199197e+01 1.3839672e+00 2.2174118e+00 
-7.9932573e+00 -2.7108087e+00 -9.7298724e+00 
-3.5731712e+00 2.1736647e+00 5.3438607e+00 
-1.0224336e+01 9.3170208e-01 2.1592592e+00 
3.5610463e+01 -1.7062500e+02 8.0184557e+02 
-3.6903634e+00 2.1051505e+00 5.4769154e+00 
-1.0467596e+01 1.0238284e+00 -5.1502237e+00 
-1.0113179e+01 -1.1212395e+00 -8.3313572e-01 
-1.0088357e+01 -3.5956210e-01 -8.8486944e-01 
-3.8350742e+00 2.0203926e+00 5.1189836e+00 
-1.0036423e+01 -3.3067908e-01 -4.6039008e-01 
-1.0046825e+01 3.3169591e+00 6.4603217e+00 
-9.9955150e+00 -6.8515558e-02 -8.5402899e-02 
-3.7154218e+00 1.8367280e+00 9.1775184e+00 
-9.9617102e+00 1.5646501e-01 2.9601086e-01 
6.3371222e+00 1.7592767e+02 -2.2161789e+01 
-9.8577436e+00 -4.1435931e+00 -7.2887917e+00 
-9.9352645e+00 4.0665698e-01 6.7686583e-01 
-6.4501976e+00 -1.5670011e+02 -7.7605994e+02 
-9.6310414e+00 -4.1153846e+00 -7.2820832e+00 
-9.3916005e+00 -4.0575174e+00 -7.0718462e+00 
-9.1474568e+00 -3.9684787e+00 -6.8852857e+00 
-9.9158372e+00 6.4922381e-01 1.0570466e+00 
-8.8984210e+00 -3.8435616e+00 -6.7003745e+00 
-9.9029284e+00 8.9909284e-01 1.4366301e+00 
-8.6457732e+00 -3.6781777e+00 -6.5157355e+00 
-3.2234600e+01 1.5420632e+02 -2.5234151e+00 
-8.3949638e+00 -3.4697216e+00 -6.3945722e+00 
-2.6536411e+00 2.3872492e+00 4.7244153e+00 
-2.7656617e+00 2.4183269e+00 4.9928953e+00 
-9.8964887e+00 1.0761832e+00 1.8089910e+00 
-2.8890386e+00 2.4340428e+00 5.0693399e+00 
-8.1287750e+00 -3.2031083e+00 -5.7953253e+00 
-3.0120320e+00 2.4306318e+00 5.1676312e+00 
-3.1359380e+00 2.4060144e+00 5.2639487e+00 
-9.8926036e+00 1.4340944e+00 2.2312481e+00 
-8.0296752e+00 -2.9881741e+00 -9.7042525e+00 
-3.2608012e+00 2.3578848e+00 5.3524258e+00 
-9.9185997e+00 9.8824955e-01 2.1763885e+00 
-3.3818760e+00 2.2833424e+00 5.4902366e+00 
3.4474423e+01 -1.7283143e+02 8.1040296e+02 
-1.0176062e+01 9.6423048e-01 -5.2363635e+00 
-9.8139772e+00 -1.1905935e+00 -8.8598518e-01 
-9.7846967e+00 -4.1527625e-01 -9.3252057e-01 
-3.5306886e+00 2.1894671e+00 5.1352074e+00 
-9.7290605e+00 -3.7575045e-01 -4.9920914e-01 
-9.7360974e+00 3.3918925e+00 6.5034468e+00 
-9.6855259e+00 -9.9894202e-02 -1.1556724e-01 
-3.4146453e+00 1.9915735e+00 9.2175881e+00 
-9.6500376e+00 1.3961295e-01 2.7445161e-01 
-6.0459817e+00 -1.5882207e+02 -7.8445889e+02 
-9.6227243e+00 4.0501951e-01 6.6360345e-01 
8.6993349e+00 1.7904211e+02 -2.2395722e+01 
-1.0014327e+01 -4.4760887e+00 -7.3109479e+00 
-9.7768121e+00 -4.4519285e+00 -7.3009218e+00 
-9.5267395e+00 -4.3987603e+00 -7.0854186e+00 
-9.6030746e+00 6.6272603e-01 1.0516184e+00 
-9.2716330e+00 -4.3140041e+00 -6.8924876e+00 
-9.0106693e+00 -4.1915112e+00 -6.6997334e+00 
-9.5903943e+00 9.2716981e-01 1.4384798e+00 
-8.7447185e+00 -4.0250452e+00 -6.5057306e+00 
-3.3496027e+01 1.5539164e+02 -2.4924990e+00 
-2.3186279e+00 2.5865797e+00 4.7202888e+00 
-8.4792431e+00 -3.8102764e+00 -6.3742765e+00 
-2.4341603e+00 2.6175961e+00 4.9909580e+00 
-9.5844522e+00 1.1174037e+00 1.8174958e+00 
-2.5602417e+00 2.6337684e+00 5.0689503e+00 
-2.6855061e+00 2.6305896e+00 5.1696098e+00 
-8.1965643e+00 -3.5300533e+00 -5.7606171e+00 
-2.8115454e+00 2.6052236e+00 5.2690803e+00 
-9.5810593e+00 1.4877399e+00 2.2461131e+00 
-8.0853262e+00 -3.2949637e+00 -9.6848586e+00 
-2.9386349e+00 2.5544999e+00 5.3615078e+00 
-9.6081414e+00 1.0489778e+00 2.1947865e+00 
-3.0620936e+00 2.4745863e+00 5.5041148e+00 
3.3176120e+01 -1.7502859e+02 8.1873700e+02 
-9.8812255e+00 9.0151130e-01 -5.3303559e+00 
-9.5100122e+00 -1.2634828e+00 -9.4488215e-01 
-9.4754025e+00 -4.7412270e-01 -9.8491637e-01 
-3.2135524e+00 2.3717947e+00 5.1524884e+00 
-9.4155246e+00 -4.2343874e-01 -5.4141580e-01 
-9.4207346e+00 3.4702977e+00 6.5461273e+00 
-9.3691502e+00 -1.3308553e-01 -1.4784894e-01 
-3.0998164e+00 2.1591051e+00 9.2573345e+00 
-9.3320431e+00 1.2196551e-01 2.5190778e-01 
-5.5275706e+00 -1.6091885e+02 -7.9258409e+02 
-9.3041486e+00 4.0373512e-01 6.5030311e-01 
1.1263645e+01 1.8224421e+02 -2.2589070e+01 
-1.0178648e+01 -4.8258748e+00 -7.3336716e+00 
-9.9320961e+00 -4.8063875e+00 -7.3223211e+00 
-9.6735612e+00 -4.7595512e+00 -7.1034603e+00 
-9.2847180e+00 6.7774130e-01 1.0468803e+00 
-9.4098147e+00 -4.6815206e+00 -6.9057357e+00 
-9.1391693e+00 -4.5644183e+00 -6.7063240e+00 
-9.2727882e+00 9.5780105e-01 1.4415149e+00 
-8.8618723e+00 -4.3999747e+00 -6.5036870e+00 
-3.4861760e+01 1.5650492e+02 -2.4605573e+00 
-1.9842837e+00 2.7939178e+00 4.7192329e+00 
-9.2678704e+00 1.1620420e+00 1.8274609e+00 
-2.1019325e+00 2.8250353e+00 4.9910649e+00 
-8.5832396e+00 -4.1816508e+00 -6.3621992e+00 
-2.2290433e+00 2.8423083e+00 5.0696755e+00 
-2.3547056e+00 2.8403704e+00 5.1719495e+00 
-8.2850248e+00 -3.8896186e+00 -5.7337929e+00 
-2.4808876e+00 2.8154842e+00 5.2740292e+00 
-9.2654238e+00 1.5453139e+00 2.2624997e+00 
-2.6081724e+00 2.7634253e+00 5.3701105e+00 
-8.1621597e+00 -3.6347968e+00 -9.6735841e+00 
-9.2939254e+00 1.1143140e+00 2.2148707e+00 
-2.7320053e+00 2.6791906e+00 5.5174460e+00 
3.1701778e+01 -1.7722233e+02 8.2685178e+02 
-9.5832377e+00 8.3539824e-01 -5.4340883e+00 
-9.2011645e+00 -1.3405755e+00 -1.0109399e+00 
-2.8841480e+00 2.5680469e+00 5.1696916e+00 
-9.1602438e+00 -5.3684076e-01 -1.0427600e+00 
-9.0955648e+00 -4.7451387e-01 -5.8730159e-01 
-9.1017302e+00 3.5523615e+00 6.5883850e+00 
-9.0462052e+00 -1.6875356e-01 -1.8217847e-01 
-2.7709397e+00 2.3402514e+00 9.2953097e+00 
-9.0076862e+00 1.0306488e-01 2.2875187e-01 
-4.8844868e+00 -1.6299443e+02 -8.0042827e+02 
-8.9796990e+00 4.0261936e-01 6.3756925e-01 
1.4043866e+01 1.8554287e+02 -2.2732804e+01 
-1.0345479e+01 -5.1908743e+00 -7.3558605e+00 
-1.0092431e+01 -5.1766381e+00 -7.3456984e+00 
-9.8284981e+00 -5.1380134e+00 -7.1258757e+00 
-8.9611723e+00 6.9437197e-01 1.0435867e+00 
-9.5594197e+00 -5.0696959e+00 -6.9253902e+00 
-9.2823626e+00 -4.9617803e+00 -6.7209314e+00 
-8.9507769e+00 9.9133331e-01 1.4465510e+00 
-8.9966768e+00 -4.8035340e+00 -6.5107729e+00 
-3.6337389e+01 1.5755069e+02 -2.4238671e+00 
-1.6552737e+00 3.0076866e+00 4.7209807e+00 
-1.7732492e+00 3.0390964e+00 4.9927591e+00 
-8.9476635e+00 1.2106090e+00 1.8396742e+00 
-8.7073065e+00 -4.5856359e+00 -6.3598341e+00 
-1.8992612e+00 3.0582530e+00 5.0708624e+00 
-2.0229414e+00 3.0588162e+00 5.1738054e+00 
-8.3952643e+00 -4.2848290e+00 -5.7165415e+00 
-2.1467250e+00 3.0359986e+00 5.2777651e+00 
-8.9468353e+00 1.6073668e+00 2.2810843e+00 
-2.2715943e+00 2.9843150e+00 5.3770336e+00 
-8.2618724e+00 -4.0117761e+00 -9.6726144e+00 
-8.9772482e+00 1.1848174e+00 2.2371858e+00 
-2.3931999e+00 2.8973143e+00 5.5288809e+00 
3.0036051e+01 -1.7941946e+02 8.3475230e+02 
-9.2820539e+00 7.6548496e-01 -5.5497696e+00 
-8.8870970e+00 -1.4227985e+00 -1.0854221e+00 
-2.5434742e+00 2.7788789e+00 5.1853981e+00 
-8.8387748e+00 -6.0447628e-01 -1.1067930e+00 
-8.7804411e+00 3.6383208e+00 6.6302389e+00 
-8.7687379e+00 -5.3006433e-01 -6.3709149e-01 
-2.4284584e+00 2.5360644e+00 9.3296758e+00 
-8.7163570e+00 -2.0784114e-01 -2.1832738e-01 
-8.6768350e+00 8.2254559e-02 2.0559402e-01 
-4.1054288e+00 -1.6505414e+02 -8.0798461e+02 
-8.6495226e+00 4.0139480e-01 6.2630471e-01 
1.7053656e+01 1.8894589e+02 -2.2816085e+01 
-1.0507565e+01 -5.5679791e+00 -7.3762233e+00 
-1.0251463e+01 -5.5594568e+00 -7.3702855e+00 
-8.6329192e+00 7.1273842e-01 1.0428278e+00 
-9.9862530e+00 -5.5311464e+00 -7.1523774e+00 
-9.7163264e+00 -5.4761169e+00 -6.9516305e+00 
-9.4373701e+00 -5.3821432e+00 -6.7441990e+00 
-8.6252039e+00 1.0282268e+00 1.4547478e+00 
-9.1474890e+00 -5.2355712e+00 -6.5280826e+00 
-3.7928105e+01 1.5853525e+02 -2.3777375e+00 
-1.3373798e+00 3.2258182e+00 4.7251024e+00 
-8.6250315e+00 1.2637929e+00 1.8552441e+00 
-1.4534617e+00 3.2577352e+00 4.9954401e+00 
-8.8509454e+00 -5.0236406e+00 -6.3686934e+00 
-1.5757550e+00 3.2797010e+00 5.0717223e+00 
-1.6945204e+00 3.2843009e+00 5.1741896e+00 
-8.5277465e+00 -4.7187536e+00 -5.7106671e+00 
-8.6268061e+00 1.6746431e+00 2.3028068e+00 
-1.8127593e+00 3.2655566e+00 5.2790915e+00 
-1.9319583e+00 3.2165039e+00 5.3808738e+00 
-8.3856768e+00 -4.4305240e+00 -9.6843871e+00 
-8.6598574e+00 1.2612294e+00 2.2624606e+00 
-2.0480727e+00 3.1289314e+00 5.5368159e+00 
2.8161728e+01 -1.8162781e+02 8.4244401e+02 
-8.9773563e+00 6.9118338e-01 -5.6799383e+00 
-8.5671916e+00 -1.5114163e+00 -1.1697343e+00 
-2.1932628e+00 3.0049303e+00 5.1978828e+00 
-8.5102801e+00 -6.7847751e-01 -1.1777641e+00 
-8.4587261e+00 3.7284920e+00 6.6717276e+00 
-8.4343633e+00 -5.9159369e-01 -6.9089410e-01 
-2.0734800e+00 2.7477682e+00 9.3581576e+00 
-8.3790872e+00 -2.5165208e-01 -2.5583859e-01 
-8.3392476e+00 5.8623603e-02 1.8337186e-01 
-3.1782173e+00 -1.6710520e+02 -8.1524727e+02 
-8.3137530e+00 3.9966858e-01 6.1781924e-01 
2.0306050e+01 1.9245919e+02 -2.2826103e+01 
-1.0655230e+01 -5.9528422e+00 -7.3933193e+00 
-1.0400539e+01 -5.9502867e+00 -7.3951080e+00 
-8.3005430e+00 7.3299100e-01 1.0461522e+00 
-1.0139374e+01 -5.9345599e+00 -7.1824021e+00 
-9.8744420e+00 -5.8969935e+00 -6.9843247e+00 
-8.2971464e+00 1.0690968e+00 1.4677388e+00 
-9.5995631e+00 -5.8227912e+00 -6.7764696e+00 
-9.3111690e+00 -5.6949189e+00 -6.5564702e+00 
-3.9638550e+01 1.5946690e+02 -2.3164327e+00 
-1.0376214e+00 3.4457071e+00 4.7309774e+00 
-1.1491396e+00 3.4783606e+00 4.9983564e+00 
-8.3015432e+00 1.3225212e+00 1.8757251e+00 
-1.2645858e+00 3.5042001e+00 5.0713390e+00 
-9.0124238e+00 -5.4964504e+00 -6.3901533e+00 
-1.3749313e+00 3.5146659e+00 5.1719871e+00 
-1.4838449e+00 3.5024685e+00 5.2766654e+00 
-8.3073462e+00 1.7481511e+00 2.3289792e+00 
-8.6819405e+00 -5.1943673e+00 -5.7179665e+00 
-1.5934369e+00 3.4589500e+00 5.3800420e+00 
-8.5339742e+00 -4.8961965e+00 -9.7114971e+00 
-8.3441064e+00 1.3445382e+00 2.2916888e+00 
-1.7000869e+00 3.3737970e+00 5.5394049e+00 
2.6059378e+01 -1.8385635e+02 8.4993218e+02 
-8.6684638e+00 6.1166629e-01 -5.8274431e+00 
-1.8362624e+00 3.2468340e+00 5.2051120e+00 
-8.2404788e+00 -1.6081258e+00 -1.2653950e+00 
-8.1737180e+00 -7.6081020e-01 -1.2563818e+00 
-8.1391269e+00 3.8233131e+00 6.7129477e+00 
-8.0914791e+00 -6.6113563e-01 -7.4863428e-01 
-1.7080844e+00 2.9768306e+00 9.3780149e+00 
-8.0336613e+00 -3.0194771e-01 -2.9393710e-01 
-7.9945569e+00 3.0942814e-02 1.6346431e-01 
-2.0897522e+00 -1.6915732e+02 -8.2221219e+02 
-7.9725171e+00 3.9690918e-01 6.1396781e-01 
2.3812846e+01 1.9608589e+02 -2.2748028e+01 
-1.0775976e+01 -6.3396729e+00 -7.4056363e+00 
-1.0528276e+01 -6.3430013e+00 -7.4189688e+00 
-7.9647664e+00 7.5532823e-01 1.0557257e+00 
-1.0277790e+01 -6.3421911e+00 -7.2149996e+00 
-1.0025203e+01 -6.3268267e+00 -7.0228433e+00 
-7.9679855e+00 1.1147676e+00 1.4878009e+00 
-9.7620443e+00 -6.2793791e+00 -6.8175491e+00 
-9.4825591e+00 -6.1790216e+00 -6.5962939e+00 
-4.1472655e+01 1.6035625e+02 -2.2331415e+00 
-7.6433961e-01 3.6641817e+00 4.7377836e+00 
-7.9792483e+00 1.3880388e+00 1.9032853e+00 
-8.6818327e-01 3.6978026e+00 5.0006154e+00 
-9.7316540e-01 3.7287061e+00 5.0686915e+00 
-9.1882706e+00 -6.0039014e+00 -6.4252076e+00 
-1.0710341e+00 3.7471663e+00 5.1659881e+00 
-1.1662240e+00 3.7445063e+00 5.2690353e+00 
-7.9911179e+00 1.8292505e+00 2.3614354e+00 
-8.8558448e+00 -5.7143392e+00 -5.7400188e+00 
-1.2615961e+00 3.7101813e+00 5.3728053e+00 
-8.7059045e+00 -5.4144547e+00 -9.7565175e+00 
-8.0331505e+00 1.4360610e+00 2.3262412e+00 
-1.3540971e+00 3.6314199e+00 5.5345980e+00 
2.3706896e+01 -1.8611525e+02 8.5722092e+02 
-1.4766060e+00 3.5052389e+00 5.2047717e+00 
-8.3542258e+00 5.2580218e-01 -5.9953783e+00 
-7.9055686e+00 -1.7151646e+00 -1.3739769e+00 
-7.8276720e+00 -8.5409132e-01 -1.3432392e+00 
-7.8250999e+00 3.9234004e+00 6.7541162e+00 
-7.7388085e+00 -7.4138605e-01 -8.0996344e-01 
-1.3357359e+00 3.2250632e+00 9.3860492e+00 
-7.6791096e+00 -3.6105546e-01 -3.3141758e-01 
-7.6422668e+00 -2.4037576e-03 1.4783327e-01 
-8.2599128e-01 -1.7122353e+02 -8.2887825e+02 
-7.6259536e+00 3.9242643e-01 6.1732409e-01 
2.7583787e+01 1.9982512e+02 -2.2565133e+01 
-1.0854147e+01 -6.7210542e+00 -7.4117238e+00 
-7.6265015e+00 7.8002556e-01 1.0745328e+00 
-1.0620158e+01 -6.7296882e+00 -7.4404415e+00 
-1.0388329e+01 -6.7460291e+00 -7.2486866e+00 
-1.0157020e+01 -6.7580602e+00 -7.0658012e+00 
-7.6394999e+00 1.1663421e+00 1.5180736e+00 
-9.9150335e+00 -6.7455155e+00 -6.8663718e+00 
-4.3433454e+01 1.6121644e+02 -2.1200099e+00 
-5.2721956e-01 3.8775043e+00 4.7445150e+00 
-9.6538365e+00 -6.6834835e+00 -6.6470409e+00 
-6.1988739e-01 3.9123086e+00 5.0012165e+00 
-7.6608191e+00 1.4620063e+00 1.9409262e+00 
-7.1037370e-01 3.9495669e+00 5.0626948e+00 
-9.3726244e+00 -6.5444525e+00 -6.4740929e+00 
-7.9124223e-01 3.9784418e+00 5.1549349e+00 
-8.6777644e-01 3.9888634e+00 5.2546974e+00 
-7.6816309e+00 1.9197613e+00 2.4027291e+00 
-9.0453540e+00 -6.2807162e+00 -5.7778495e+00 
-9.4371729e-01 3.9682576e+00 5.3573537e+00 
-8.8987334e+00 -5.9913641e+00 -9.8216957e+00 
-7.7311920e+00 1.5375468e+00 2.3680197e+00 
-1.0167416e+00 3.9010490e+00 5.5202175e+00 
-1.1202758e+00 3.7808541e+00 5.1943443e+00 
2.1078966e+01 -1.8841594e+02 8.6431176e+02 
-8.0329062e+00 4.3208762e-01 -6.1869440e+00 
-7.5605914e+00 -1.8354293e+00 -1.4969987e+00 
-7.5213083e+00 4.0296258e+00 6.7956634e+00 
-7.4703251e+00 -9.6173706e-01 -1.4387031e+00 
-9.6182359e-01 3.4947616e+00 9.3786720e+00 
-7.3747543e+00 -8.3584678e-01 -8.7414120e-01 
-7.3142335e+00 -4.3198310e-01 -3.6650512e-01 
6.2803722e-01 -1.7332126e+02 -8.3524884e+02 
-7.2817731e+00 -4.3484535e-02 1.3919682e-01 
-7.2742558e+00 3.8536279e-01 6.3139474e-01 
3.1625535e+01 2.0367067e+02 -2.2259242e+01 
-7.2869253e+00 8.0748196e-01 1.1066296e+00 
-1.0870715e+01 -7.0878173e+00 -7.4103962e+00 
-1.0658219e+01 -7.1004922e+00 -7.4578751e+00 
-1.0454271e+01 -7.1358823e+00 -7.2812566e+00 
-1.0254702e+01 -7.1807439e+00 -7.1107116e+00 
-7.3139873e+00 1.2252951e+00 1.5628376e+00 
-1.0045170e+01 -7.2123161e+00 -6.9205363e+00 
-4.5522893e+01 1.6206336e+02 -1.9682489e+00 
-3.3721533e-01 4.0814096e+00 4.7500471e+00 
-9.8137283e+00 -7.2015349e+00 -6.7067983e+00 
-7.3497294e+00 1.5466227e+00 1.9927649e+00 
-4.1492463e-01 4.1175817e+00 4.9991108e+00 
-4.8661889e-01 4.1625495e+00 5.0522534e+00 
-5.4567236e-01 4.2045251e+00 5.1375762e+00 
-9.5564048e+00 -7.1146328e+00 -6.5357398e+00 
-5.9827021e-01 4.2321466e+00 5.2321643e+00 
-7.3834825e+00 2.0220989e+00 2.4563931e+00 
-9.2434263e+00 -6.8944654e+00 -5.8314211e+00 
-6.4915311e-01 4.2307580e+00 5.3318939e+00 
-7.4437822e+00 1.6513028e+00 2.4196590e+00 
-9.1070340e+00 -6.6331756e+00 -9.9084699e+00 
-6.9690832e-01 4.1816826e+00 5.4940822e+00 
-7.7568054e-01 4.0745227e+00 5.1712525e+00 
1.8146399e+01 -1.9077109e+02 8.7120169e+02 
-7.7020640e+00 3.2858830e-01 -6.4051859e+00 
-7.2031735e+00 -1.9725926e+00 -1.6357389e+00 
-7.2339837e+00 4.1432188e+00 6.8383660e+00 
-7.0994837e+00 -1.0881136e+00 -1.5427482e+00 
-5.9435527e-01 3.7888961e+00 9.3520680e+00 
-6.9974481e+00 -9.4896903e-01 -9.3988067e-01 
-6.9376646e+00 -5.1852432e-01 -3.9668599e-01 
2.2881656e+00 -1.7547380e+02 -8.4133415e+02 
-6.9124293e+00 -9.4868002e-02 1.4123685e-01 
-6.9177544e+00 3.7471123e-01 6.6087953e-01 
-6.9475967e+00 8.3829966e-01 1.1574557e+00 
3.5940375e+01 2.0760947e+02 -2.1811622e+01 
-1.0803299e+01 -7.4290162e+00 -7.4010194e+00 
-1.0620909e+01 -7.4435657e+00 -7.4694121e+00 
-1.0455020e+01 -7.4992454e+00 -7.3095445e+00 
-6.9944301e+00 1.2935998e+00 1.6278627e+00 
-1.0298901e+01 -7.5822645e+00 -7.1535338e+00 
-1.0134759e+01 -7.6679666e+00 -6.9756936e+00 
-4.7741618e+01 1.6291579e+02 -1.7683110e+00 
-2.0633692e-01 4.2711966e+00 4.7532620e+00 
-2.6520981e-01 4.3088764e+00 4.9932879e+00 
-7.0504815e+00 1.6447830e+00 2.0643902e+00 
-9.9465885e+00 -7.7234369e+00 -6.7715251e+00 
-3.1380402e-01 4.3629270e+00 5.0363106e+00 
-3.4623478e-01 4.4209094e+00 5.1127077e+00 
-9.7262796e+00 -7.7083536e+00 -6.6070032e+00 
-3.6959099e-01 4.4704197e+00 5.2000240e+00 
-7.1026530e+00 2.1394411e+00 2.5272678e+00 
-9.4390068e+00 -7.5548295e+00 -5.8988809e+00 
-3.8970626e-01 4.4948107e+00 5.2947591e+00 
-7.1781858e+00 1.7803505e+00 2.4847855e+00 
-4.0626840e-01 4.4721149e+00 5.4541802e+00 
-9.3216081e+00 -7.3459240e+00 -1.0016736e+01 
-4.5435201e-01 4.3873367e+00 5.1330972e+00 
1.4875372e+01 -1.9319453e+02 8.7788051e+02 
-7.3584500e+00 2.1290873e-01 -6.6525459e+00 
-6.9713592e+00 4.2659017e+00 6.8835279e+00 
-6.8304803e+00 -2.1311956e+00 -1.7909260e+00 
-6.7126980e+00 -1.2386694e+00 -1.6547127e+00 
-2.4482851e-01 4.1113694e+00 9.3025005e+00 
-6.6048997e+00 -1.0862704e+00 -1.0051477e+00 
-6.5480153e+00 -6.2532979e-01 -4.1850620e-01 
4.1709369e+00 -1.7771197e+02 -8.4715404e+02 
-6.5336916e+00 -1.5962366e-01 1.5884236e-01 
-6.5570698e+00 3.5938953e-01 7.1198194e-01 
-6.6106349e+00 8.7342241e-01 1.2342137e+00 
4.0524656e+01 2.1161999e+02 -2.1204562e+01 
-1.0626561e+01 -7.7320575e+00 -7.3838871e+00 
-1.0483267e+01 -7.7451969e+00 -7.4730197e+00 
-1.0365999e+01 -7.8213419e+00 -7.3291306e+00 
-6.6847253e+00 1.3739146e+00 1.7208348e+00 
-1.0265704e+01 -7.9472218e+00 -7.1881152e+00 
-1.0161025e+01 -8.0973656e+00 -7.0247518e+00 
-5.0088743e+01 1.6379537e+02 -1.5101020e+00 
-1.4724808e-01 4.4418826e+00 4.7532468e+00 
-6.7688990e+00 1.7602849e+00 2.1632990e+00 
-1.8359574e-01 4.4811675e+00 4.9828683e+00 
-1.0031362e+01 -8.2358645e+00 -6.8341074e+00 
-2.0515320e-01 4.5456461e+00 5.0138637e+00 
-2.0661976e-01 4.6226980e+00 5.0791536e+00 
-9.8634131e+00 -8.3160811e+00 -6.6815987e+00 
-1.9591246e-01 4.6993235e+00 5.1569591e+00 
-6.8468688e+00 2.2759410e+00 2.6219019e+00 
-9.6156615e+00 -8.2584435e+00 -5.9755048e+00 
-1.8000172e-01 4.7571871e+00 5.2445054e+00 
-6.9438099e+00 1.9286159e+00 2.5683297e+00 
-1.5986259e-01 4.7710341e+00 5.3988968e+00 
-9.5280843e+00 -8.1347482e+00 -1.0143746e+01 
-1.7175982e-01 4.7208059e+00 5.0780085e+00 
1.1226543e+01 -1.9570107e+02 8.8432742e+02 
-6.9979469e+00 8.2231393e-02 -6.9301128e+00 
-6.7441724e+00 4.4000699e+00 6.9332101e+00 
-6.4393919e+00 -2.3166823e+00 -1.9622396e+00 
-6.3075490e+00 -1.4200024e+00 -1.7729411e+00 
7.0707589e-02 4.4673545e+00 9.2268307e+00 
-6.1953183e+00 -1.2543849e+00 -1.0669043e+00 
-6.1441793e+00 -7.5789326e-01 -4.2733997e-01 
6.2933404e+00 -1.8007620e+02 -8.5274179e+02 
-6.1453908e+00 -2.4122624e-01 1.9838650e-01 
-6.1933680e+00 3.3842015e-01 7.9277397e-01 
-6.2789983e+00 9.1438675e-01 1.3463253e+00 
4.5366936e+01 2.1567066e+02 -2.0423878e+01 
-1.0313159e+01 -7.9830478e+00 -7.3606569e+00 
-1.0217607e+01 -7.9901936e+00 -7.4665188e+00 
-1.0158962e+01 -8.0854437e+00 -7.3340044e+00 
-6.3900057e+00 1.4698651e+00 1.8518697e+00 
-1.0126486e+01 -8.2575649e+00 -7.2055056e+00 
-1.0095498e+01 -8.4819585e+00 -7.0569391e+00 
-5.2561562e+01 1.6472642e+02 -1.1831404e+00 
-1.7261970e-01 4.5884303e+00 4.7495467e+00 
-6.5125100e+00 1.8981254e+00 2.2994147e+00 
-1.8334207e-01 4.6294083e+00 4.9671636e+00 
-1.0040507e+01 -8.7213532e+00 -6.8831253e+00 
-1.7483766e-01 4.7056003e+00 4.9838725e+00 
-1.4212042e-01 4.8048670e+00 5.0356354e+00 
-9.9420119e+00 -8.9238970e+00 -6.7487451e+00 
-6.6260406e+00 2.4369994e+00 2.7490187e+00 
-9.3753212e-02 4.9143041e+00 5.1016397e+00 
-3.7803755e-02 5.0144871e+00 5.1799623e+00 
-9.7498830e+00 -8.9981597e+00 -6.0522028e+00 
-6.7526954e+00 2.1011753e+00 2.6768775e+00 
2.3297996e-02 5.0771918e+00 5.3272529e+00 
-9.7051303e+00 -9.0028075e+00 -1.0282581e+01 
5.1782995e-02 5.0770922e+00 5.0051504e+00 
7.1540932e+00 -1.9830610e+02 8.9050676e+02 
-6.5662152e+00 4.5490240e+00 6.9904999e+00 
-6.6156152e+00 -6.6522083e-02 -7.2364078e+00 
-6.0269020e+00 -2.5352869e+00 -2.1475181e+00 
3.3040455e-01 4.8637288e+00 9.1233091e+00 
-5.8822176e+00 -1.6398027e+00 -1.8942674e+00 
-5.7677004e+00 -1.4609554e+00 -1.1207898e+00 
-5.7258680e+00 -9.2238128e-01 -4.1713870e-01 
8.6724011e+00 -1.8261883e+02 -8.5814863e+02 
-5.7481846e+00 -3.4327726e-01 2.6802883e-01 
-5.8287775e+00 3.1131049e-01 9.1361919e-01 
-5.9568978e+00 9.6375868e-01 1.5059750e+00 
5.0445871e+01 2.1971870e+02 -1.9462595e+01 
-9.8354676e+00 -8.1674186e+00 -7.3348333e+00 
-9.7949087e+00 -8.1626062e+00 -7.4475691e+00 
-9.8029481e+00 -8.2735837e+00 -7.3161634e+00 
-6.1171027e+00 1.5865206e+00 2.0341235e+00 
-9.8483091e+00 -8.4931377e+00 -7.1932551e+00 
-5.5155194e+01 1.6573556e+02 -7.7649735e-01 
-9.9037327e+00 -8.7999257e+00 -7.0566390e+00 
-2.9418009e-01 4.7060499e+00 4.7424216e+00 
-2.7729162e-01 4.7488887e+00 4.9456122e+00 
-6.2910484e+00 2.0649232e+00 2.4856794e+00 
-2.3732568e-01 4.8380297e+00 4.9449885e+00 
-9.9390268e+00 -9.1579516e+00 -6.9014883e+00 
-1.6921187e-01 4.9626734e+00 4.9803841e+00 
-9.9277366e+00 -9.5125252e+00 -6.7913221e+00 
-8.1833284e-02 5.1109866e+00 5.0324393e+00 
-6.4527983e+00 2.6296640e+00 2.9200167e+00 
1.5800784e-02 5.2634493e+00 5.1000840e+00 
-9.8090762e+00 -9.7615474e+00 -6.1136494e+00 
-6.6200467e+00 2.3045516e+00 2.8190108e+00 
1.1969380e-01 5.3896655e+00 5.2391571e+00 
-9.8222171e+00 -9.9496226e+00 -1.0419855e+01 
1.9018274e-01 5.4593155e+00 4.9153168e+00 
-6.4548877e+00 4.7172930e+00 7.0597863e+00 
2.6047237e+00 -2.0102519e+02 8.9636253e+02 
-6.2059222e+00 -2.3626972e-01 -7.5654460e+00 
-5.5909121e+00 -2.7937069e+00 -2.3415330e+00 
5.0523079e-01 5.3096105e+00 8.9928058e+00 
-5.4364868e+00 -1.9064961e+00 -2.0132867e+00 
-5.3228431e+00 -1.7142850e+00 -1.1607484e+00 
-5.2944647e+00 -1.1251489e+00 -3.8018976e-01 
1.1324587e+01 -1.8540634e+02 -8.6344912e+02 
-5.3442783e+00 -4.6891577e-01 3.7802507e-01 
-5.4669937e+00 2.7875688e-01 1.0876585e+00 
-5.6504169e+00 1.0259420e+00 1.7287650e+00 
5.5727901e+01 2.2370940e+02 -1.8326280e+01 
-9.1682577e+00 -8.2708616e+00 -7.3119499e+00 
-9.1872048e+00 -8.2468554e+00 -7.4136362e+00 
-5.8751842e+00 1.7311352e+00 2.2845057e+00 
-9.2661898e+00 -8.3677750e+00 -7.2652320e+00 
-9.3951559e+00 -8.6328056e+00 -7.1345928e+00 
-5.7862076e+01 1.6685091e+02 -2.7828404e-01 
-5.2140946e-01 4.7905657e+00 4.7329959e+00 
-9.5457132e+00 -9.0269465e+00 -7.0024267e+00 
-4.7668340e-01 4.8356943e+00 4.9174726e+00 
-6.1171356e+00 2.2696479e+00 2.7386960e+00 
-4.0636697e-01 4.9390648e+00 4.8949299e+00 
-9.6838943e+00 -9.5193074e+00 -6.8645737e+00 
-3.0477031e-01 5.0922408e+00 4.9104613e+00 
-1.8061180e-01 5.2857373e+00 4.9466832e+00 
-6.3431172e+00 2.8631457e+00 3.1494333e+00 
-9.7762035e+00 -1.0056487e+01 -6.7840251e+00 
-4.3506702e-02 5.5014268e+00 5.0036168e+00 
-9.7492845e+00 -1.0529076e+01 -6.1355101e+00 
-6.5647698e+00 2.5471671e+00 3.0055404e+00 
1.0094319e-01 5.7082369e+00 5.1353452e+00 
-9.8369543e+00 -1.0968643e+01 -1.0533096e+01 
2.1073417e-01 5.8719303e+00 4.8117493e+00 
-6.4316335e+00 4.9110146e+00 7.1469540e+00 
-2.4833124e+00 -2.0387365e+02 9.0181246e+02 
-5.7633605e+00 -4.2903374e-01 -7.9037183e+00 
5.5755743e-01 5.8169880e+00 8.8403448e+00 
-5.1316113e+00 -3.0982114e+00 -2.5341345e+00 
-4.9734436e+00 -2.2285487e+00 -2.1213661e+00 
-4.8649082e+00 -2.0224079e+00 -1.1786447e+00 
1.4265064e+01 -1.8852101e+02 -8.6874676e+02 
-4.8543570e+00 -1.3718398e+00 -3.0695337e-01 
-4.9384055e+00 -6.1968758e-01 5.4100706e-01 
-5.1141681e+00 2.4394534e-01 1.3313806e+00 
-5.3683271e+00 1.1084734e+00 2.0345167e+00 
6.1164907e+01 2.2757656e+02 -1.7039520e+01 
-8.2925295e+00 -8.2805665e+00 -7.2998796e+00 
-8.3711586e+00 -8.2292708e+00 -7.3614785e+00 
-5.6766876e+00 1.9145653e+00 2.6245249e+00 
-8.5193295e+00 -8.3518124e+00 -7.1681950e+00 
-8.7305044e+00 -8.6563308e+00 -7.0081223e+00 
-6.0671257e+01 1.6810094e+02 3.2581695e-01 
-8.5985030e-01 4.8388225e+00 4.7229645e+00 
-8.9774226e+00 -9.1377997e+00 -6.8656496e+00 
-7.8953394e-01 4.8872493e+00 4.8811281e+00 
-6.0071536e+00 2.5246131e+00 3.0793601e+00 
-6.9349842e-01 5.0064140e+00 4.8294587e+00 
-9.2244299e+00 -9.7755176e+00 -6.7392223e+00 
-5.6479221e-01 5.1913478e+00 4.8204349e+00 
-4.1130293e-01 5.4364595e+00 4.8395997e+00 
-6.3170757e+00 3.1498062e+00 3.4552420e+00 
-9.4319230e+00 -1.0523673e+01 -6.6901733e+00 
-2.4272893e-01 5.7270810e+00 4.8878399e+00 
-9.5129995e+00 -1.1272108e+01 -6.0821852e+00 
-6.6098849e+00 2.8397766e+00 3.2494288e+00 
-6.6117771e-02 6.0339093e+00 5.0172955e+00 
-9.6920286e+00 -1.2043810e+01 -1.0585863e+01 
7.3596717e-02 6.3211536e+00 4.7003950e+00 
-6.5221073e+00 5.1385546e+00 7.2593589e+00 
-8.1810570e+00 -2.0686670e+02 9.0673978e+02 
-5.2835861e+00 -6.4431491e-01 -8.2255339e+00 
4.4000009e-01 6.4013793e+00 8.6776569e+00 
-4.6538865e+00 -3.4533812e+00 -2.7075454e+00 
-4.5020740e+00 -2.6126035e+00 -2.2053881e+00 
-4.4038553e+00 -2.3917386e+00 -1.1639886e+00 
1.7506796e+01 -1.9206089e+02 -8.7417954e+02 
-4.4146585e+00 -1.6654835e+00 -1.8611224e-01 
-4.5392231e+00 -7.9369008e-01 7.7218582e-01 
-4.7798861e+00 2.1462214e-01 1.6653072e+00 
-5.1232884e+00 1.2244779e+00 2.4483417e+00 
6.6691963e+01 2.3124434e+02 -1.5655467e+01 
-7.2003752e+00 -8.1866307e+00 -7.3065609e+00 
-7.3330880e+00 -8.0999553e+00 -7.2874771e+00 
-5.5384832e+00 2.1531373e+00 3.0812902e+00 
-7.5402738e+00 -8.2136197e+00 -7.0091013e+00 
-7.8217501e+00 -8.5470867e+00 -6.7875965e+00 
-6.3567389e+01 1.6951277e+02 1.0549630e+00 
-1.3090194e+00 4.8490716e+00 4.7139578e+00 
-1.2185479e+00 4.9028917e+00 4.8326202e+00 
-5.9825101e+00 2.8476778e+00 3.5334110e+00 
-8.1544288e+00 -9.1090706e+00 -6.6110307e+00 
-1.1059530e+00 5.0401609e+00 4.7408535e+00 
-9.6239415e-01 5.2604139e+00 4.7007994e+00 
-8.5043097e+00 -9.8951424e+00 -6.4806360e+00 
-7.9414924e-01 5.5636601e+00 4.7018974e+00 
-6.3996342e+00 3.5060484e+00 3.8587229e+00 
-8.8286899e+00 -1.0875828e+01 -6.4612981e+00 
-6.1016837e-01 5.9413385e+00 4.7472703e+00 
-9.0274596e+00 -1.1950975e+01 -5.9006880e+00 
-6.7827467e+00 3.1965982e+00 3.5650750e+00 
-4.1865251e-01 6.3696049e+00 4.8849675e+00 
-9.3123971e+00 -1.3145022e+01 -1.0526251e+01 
-2.6793631e-01 6.8153819e+00 4.5908729e+00 
-6.7555733e+00 5.4108268e+00 7.4052340e+00 
-1.4569564e+01 -2.1002087e+02 9.1098799e+02 
9.4840798e-02 7.0824099e+00 8.5243981e+00 
-4.7658615e+00 -8.7737694e-01 -8.4861716e+00 
-4.1709189e+00 -3.8584320e+00 -2.8325872e+00 
-4.0413432e+00 -3.0616881e+00 -2.2462993e+00 
-3.9585085e+00 -2.8234168e+00 -1.1040582e+00 
2.1059933e+01 -1.9613600e+02 -8.7992218e+02 
-3.9916771e+00 -2.0042161e+00 -5.0530723e-03 
-4.1604889e+00 -9.8224239e-01 1.0893635e+00 
-4.4785655e+00 2.0673801e-01 2.1149792e+00 
-4.9329874e+00 1.3958623e+00 3.0021462e+00 
7.2225851e+01 2.3463105e+02 -1.4262255e+01 
-5.9009856e+00 -7.9834654e+00 -7.3411165e+00 
-5.4837811e+00 2.4731545e+00 3.6888275e+00 
-6.0751077e+00 -7.8546714e+00 -7.1841001e+00 
-6.3210512e+00 -7.9479343e+00 -6.7714655e+00 
-6.6471416e+00 -8.2955087e+00 -6.4435692e+00 
-6.6529274e+01 1.7110981e+02 1.9383820e+00 
-1.8600786e+00 4.8212562e+00 4.7045141e+00 
-6.0711024e+00 3.2640111e+00 4.1317250e+00 
-1.7584992e+00 4.8843689e+00 4.7644411e+00 
-7.0382296e+00 -8.9230726e+00 -6.1954792e+00 
-1.6438660e+00 5.0435733e+00 4.6158154e+00 
-1.5048873e+00 5.3036249e+00 4.5355770e+00 
-7.4669258e+00 -9.8488674e+00 -6.0356405e+00 
-6.6216815e+00 3.9556260e+00 4.3834582e+00 
-1.3454913e+00 5.6717742e+00 4.5178069e+00 
-7.8922568e+00 -1.1070552e+01 -6.0285910e+00 
-1.1729068e+00 6.1486898e+00 4.5685095e+00 
-8.2053879e+00 -1.2513868e+01 -5.5236078e+00 
-7.1144384e+00 3.6349468e+00 3.9663192e+00 
-9.9557555e-01 6.7210505e+00 4.7357753e+00 
-8.6603536e-01 7.3655524e+00 4.4917964e+00 
-8.6029098e+00 -1.4222381e+01 -1.0271333e+01 
-7.1633396e+00 5.7428972e+00 7.5922486e+00 
-5.4480425e-01 7.8839318e+00 8.4139749e+00 
-2.1740643e+01 -2.1335874e+02 9.1434385e+02 
-4.2164255e+00 -1.1134572e+00 -8.6117905e+00 
-3.7103617e+00 -4.3059586e+00 -2.8637535e+00 
-3.6251873e+00 -3.5673383e+00 -2.2180216e+00 
-3.5610937e+00 -3.3115655e+00 -9.8474053e-01 
2.4931343e+01 -2.0085742e+02 -8.8618734e+02 
-3.6105935e+00 -2.3749021e+00 2.4864579e-01 
-3.8227752e+00 -1.1660001e+00 1.5128803e+00 
-4.2296900e+00 2.4921610e-01 2.7124241e+00 
-4.8223317e+00 1.6604060e+00 3.7371681e+00 
-5.5440279e+00 2.9135595e+00 4.4899641e+00 
7.7664093e+01 2.3765529e+02 -1.2998188e+01 
-4.4260858e+00 -7.6706488e+00 -7.3994275e+00 
-4.6227746e+00 -7.4963884e+00 -7.0473355e+00 
-4.8761011e+00 -7.5587133e+00 -6.4353556e+00 
-6.9528112e+01 1.7290865e+02 3.0191839e+00 
-5.2057705e+00 -7.9028470e+00 -5.9498482e+00 
-2.4932046e+00 4.7570175e+00 4.6894522e+00 
-6.3101771e+00 3.8142562e+00 4.9099697e+00 
-2.3933471e+00 4.8361023e+00 4.6610388e+00 
-2.2966009e+00 5.0237034e+00 4.4356786e+00 
-5.6069309e+00 -8.5728130e+00 -5.5745914e+00 
-2.1896338e+00 5.3300158e+00 4.3004090e+00 
-6.0649012e+00 -9.6149397e+00 -5.3345147e+00 
-7.0205484e+00 4.5281082e+00 5.0527913e+00 
-2.0733632e+00 5.7706879e+00 4.2599318e+00 
-6.5491188e+00 -1.1065784e+01 -5.3145558e+00 
-1.9521259e+00 6.3587942e+00 4.3280909e+00 
-7.6388822e+00 4.1802115e+00 4.4622874e+00 
-6.9487185e+00 -1.2897300e+01 -4.8434344e+00 
-1.8336424e+00 7.0980090e+00 4.5516479e+00 
-1.7740764e+00 7.9852136e+00 4.4129076e+00 
-7.4508859e+00 -1.5200340e+01 -9.7296970e+00 
-7.7740571e+00 6.1509748e+00 7.8238702e+00 
-1.5520501e+00 8.8333937e+00 8.3818473e+00 
-2.9798670e+01 -2.1691882e+02 9.1655467e+02 
-3.6570567e+00 -1.3302132e+00 -8.4867759e+00 
-3.3207686e+00 -4.7643733e+00 -2.7339286e+00 
-3.3105137e+00 -4.1135565e+00 -2.0865454e+00 
2.9127013e+01 -2.0631242e+02 -8.9320510e+02 
-3.2598360e+00 -3.8270652e+00 -7.9410040e-01 
-3.3082181e+00 -2.7529321e+00 5.8510021e-01 
-3.5514575e+00 -1.3051334e+00 2.0649236e+00 
-4.0593459e+00 3.9291465e-01 3.4993169e+00 
-4.8238668e+00 2.0766414e+00 4.7086315e+00 
-5.7640799e+00 3.5436881e+00 5.5388401e+00 
8.2886907e+01 2.4024438e+02 -1.2041645e+01 
-2.8362164e+00 -7.2531319e+00 -7.4785451e+00 
-3.0308624e+00 -7.0354645e+00 -6.8541371e+00 
-3.2531726e+00 -7.0606562e+00 -6.0043806e+00 
-7.2524990e+01 1.7491512e+02 4.3670022e+00 
-3.1757311e+00 4.6593619e+00 4.6466909e+00 
-3.5296718e+00 -7.3840035e+00 -5.2810016e+00 
-3.0926722e+00 4.7648355e+00 4.5053260e+00 
-6.7489026e+00 4.5492587e+00 5.9079024e+00 
-3.0386940e+00 4.9914981e+00 4.1714707e+00 
-3.8707517e+00 -8.0671033e+00 -4.7115713e+00 
-2.9983464e+00 5.3541035e+00 3.9657792e+00 
-4.2780070e+00 -9.1862503e+00 -4.3105260e+00 
-2.9708077e+00 5.8771268e+00 3.8877256e+00 
-7.6428158e+00 5.2767906e+00 5.8835615e+00 
-2.9562508e+00 6.5884593e+00 3.9766652e+00 
-4.7411178e+00 -1.0826828e+01 -4.1951222e+00 
-8.3877728e+00 4.8522748e+00 5.0491293e+00 
-2.9593940e+00 7.5157329e+00 4.2991641e+00 
-5.1646685e+00 -1.3030403e+01 -3.7564374e+00 
-3.0404172e+00 8.6905897e+00 4.3297611e+00 
-5.7309907e+00 -1.5971563e+01 -8.7093304e+00 
-8.6083145e+00 6.6622471e+00 8.0945442e+00 
-2.9963660e+00 9.9588269e+00 8.4896247e+00 
-3.8865859e+01 -2.2077604e+02 9.1725294e+02 
-3.1311033e+00 -1.4684255e+00 -7.9361672e+00 
-3.0874147e+00 -5.2058802e+00 -2.3494032e+00 
-3.1789393e+00 -4.6285641e+00 -1.8154641e+00 
3.3653460e+01 -2.1251753e+02 -9.0122028e+02 
-3.1244041e+00 -4.3391940e+00 -5.2482146e-01 
-3.1271099e+00 -3.0708200e+00 1.0045572e+00 
-3.3764293e+00 -1.3406790e+00 2.7713995e+00 
-3.9943923e+00 7.1893868e-01 4.5331600e+00 
-4.9838355e+00 2.7475142e+00 5.9935456e+00 
-6.2058751e+00 4.4445295e+00 6.9083340e+00 
8.7759486e+01 2.4234458e+02 -1.1628897e+01 
-1.2204360e+00 -6.7394775e+00 -7.5203956e+00 
-1.3917450e+00 -6.4886255e+00 -6.6211830e+00 
-1.5390192e+00 -6.4776850e+00 -5.4558382e+00 
-7.5469120e+01 1.7711970e+02 6.0707666e+00 
-3.8596644e+00 4.5314482e+00 4.5519775e+00 
-7.4598867e+00 5.5790326e+00 7.1633781e+00 
-3.8098298e+00 4.6786803e+00 4.2586813e+00 
-1.7013140e+00 -6.7685761e+00 -4.4865037e+00 
-3.8240478e+00 4.9605631e+00 3.8118388e+00 
-1.8911829e+00 -7.4334375e+00 -3.5725911e+00 
-3.8909039e+00 5.3955646e+00 3.4882908e+00 
-4.0065668e+00 6.0152524e+00 3.3513813e+00 
-8.5418239e+00 6.2337977e+00 6.8758377e+00 
-2.1380924e+00 -8.5770512e+00 -2.8915536e+00 
-4.1694938e+00 6.8633950e+00 3.4392778e+00 
-2.4585471e+00 -1.0336497e+01 -2.5656130e+00 
-9.3915730e+00 5.7071985e+00 5.6962247e+00 
-4.3787786e+00 7.9973256e+00 3.8770288e+00 
-2.7875871e+00 -1.2842205e+01 -2.0133540e+00 
-4.6932017e+00 9.4999303e+00 4.2030981e+00 
-3.3388676e+00 -1.6397546e+01 -7.1094312e+00 
-9.6603942e+00 7.2778025e+00 8.3765099e+00 
-4.9343314e+00 1.1284476e+01 8.7160055e+00 
-4.9099146e+01 -2.2506535e+02 9.1614163e+02 
-2.7389536e+00 -1.5055250e+00 -6.7189040e+00 
-3.1246264e+00 -5.4761259e+00 -1.5943150e+00 
-3.3529845e+00 -5.1022851e+00 -1.3652136e+00 
3.8534613e+01 -2.1932923e+02 -9.1037078e+02 
-3.2282146e+00 -4.6873275e+00 -1.9768535e-01 
-3.1126883e+00 -3.2839572e+00 1.5017320e+00 
-3.3133894e+00 -1.1395957e+00 3.6590938e+00 
-4.0634701e+00 1.3623378e+00 5.9003386e+00 
-5.3588552e+00 3.8047858e+00 7.7155502e+00 
-6.9723682e+00 5.8367321e+00 8.6902897e+00 
9.2141001e+01 2.4393234e+02 -1.1991933e+01 
3.0125745e-01 -6.1396038e+00 -7.4788401e+00 
1.7096424e-01 -5.8740723e+00 -6.2843752e+00 
-7.8294985e+01 1.7949219e+02 8.2572555e+00 
1.2515355e-01 -5.8401017e+00 -4.9374727e+00 
-4.4836262e+00 4.3751821e+00 4.3337015e+00 
-4.4772845e+00 4.5842541e+00 3.9266857e+00 
-8.5416620e+00 6.9417350e+00 8.7120819e+00 
1.4403213e-01 -6.0949979e+00 -3.5364076e+00 
-4.5849857e+00 4.9450449e+00 3.3121222e+00 
1.8828000e-01 -6.7176206e+00 -2.3091739e+00 
-4.7946885e+00 5.4759515e+00 2.8912759e+00 
-5.1152399e+00 6.2155084e+00 2.5674839e+00 
-9.8011132e+00 7.5724060e+00 7.9866991e+00 
2.3732796e-01 -7.8249374e+00 -1.0049926e+00 
-5.5367094e+00 7.2190317e+00 2.6011581e+00 
2.2080610e-01 -9.6029929e+00 -2.1290895e-01 
-1.0653224e+01 6.6910096e+00 6.3156888e+00 
-6.0563609e+00 8.5758819e+00 3.1340035e+00 
1.5275198e-01 -1.2276362e+01 5.2673345e-01 
-6.7271713e+00 1.0435265e+01 3.8052875e+00 
-2.2083526e-01 -1.6307670e+01 -4.3536529e+00 
-1.0897355e+01 8.0642248e+00 8.6170141e+00 
-7.3749477e+00 1.2819289e+01 9.0960681e+00 
-6.0735384e+01 -2.3003291e+02 9.1261442e+02 
-2.6331959e+00 -1.2661337e+00 -4.5188147e+00 
-3.6361150e+00 -5.6649352e+00 -3.5119342e-01 
4.3807563e+01 -2.2630785e+02 -9.2078099e+02 
-3.9245729e+00 -5.1161067e+00 -7.3960686e-01 
-3.6583284e+00 -4.9749050e+00 1.6476173e-01 
-3.2652793e+00 -3.0440329e+00 2.0195054e+00 
-3.3464343e+00 -6.3016488e-01 4.7859112e+00 
-4.2740320e+00 2.5191473e+00 7.7552914e+00 
-6.0429529e+00 5.5712115e+00 1.0054577e+01 
-8.2072080e+00 7.6906117e+00 1.1047242e+01 
9.5892171e+01 2.4502392e+02 -1.3353387e+01 
1.5924959e+00 -5.4596045e+00 -7.2000007e+00 
1.4960863e+00 -5.2074830e+00 -5.9250038e+00 
-8.0923511e+01 1.8197696e+02 1.1039047e+01 
-4.9710919e+00 4.1880707e+00 3.9503158e+00 
1.5697827e+00 -5.1729100e+00 -4.3781910e+00 
-5.0132533e+00 4.4844820e+00 3.4497583e+00 
-1.0197923e+01 9.1180090e+00 1.0549658e+01 
-5.2208741e+00 4.9528721e+00 2.8142435e+00 
1.7809879e+00 -5.4059499e+00 -2.9552349e+00 
-5.6091653e+00 5.6146542e+00 2.0883301e+00 
2.1547324e+00 -5.9669390e+00 -7.7389145e-01 
-6.1758326e+00 6.5066835e+00 1.6323246e+00 
-1.1494023e+01 9.0597982e+00 9.0795394e+00 
2.5897406e+00 -6.9869696e+00 1.0261813e+00 
-6.9464484e+00 7.6982297e+00 1.2510552e+00 
3.0627522e+00 -8.6596004e+00 3.0400504e+00 
-1.2192950e+01 8.0117523e+00 6.7383845e+00 
-7.8930204e+00 9.2976357e+00 1.7459431e+00 
3.4788256e+00 -1.1295613e+01 4.5730262e+00 
-9.0630775e+00 1.1524220e+01 2.8434519e+00 
-1.2204765e+01 8.8741695e+00 8.6962373e+00 
3.4768876e+00 -1.5520354e+01 -3.1301941e-01 
-1.0277709e+01 1.4553897e+01 9.1334004e+00 
-7.4178336e+01 -2.3599744e+02 9.0664108e+02 
-3.1554688e+00 -9.3188283e-01 -1.0495520e+00 
-4.7434997e+00 -5.0981923e+00 1.4458362e+00 
4.9585240e+01 -2.3248666e+02 -9.3209252e+02 
-5.0660929e+00 -5.2920983e+00 1.6975025e-02 
-4.3047385e+00 -3.9397003e+00 4.1151245e-01 
-3.5325085e+00 -2.8738939e+00 2.5755321e+00 
-3.3773847e+00 8.8557086e-01 6.2049420e+00 
-4.5698065e+00 4.6088205e+00 1.0350584e+01 
-7.1410831e+00 8.0689731e+00 1.3429060e+01 
-1.0261891e+01 1.1383943e+01 1.4147208e+01 
9.8891482e+01 2.4568237e+02 -1.5783910e+01 
2.5054658e+00 -4.6986986e+00 -6.5771304e+00 
2.4179277e+00 -4.4927252e+00 -5.4662701e+00 
-8.3262038e+01 1.8448840e+02 1.4511283e+01 
-5.2394638e+00 3.9616714e+00 3.3033423e+00 
-5.3149769e+00 4.3728259e+00 2.9451018e+00 
-1.2623918e+01 1.1199736e+01 1.2601554e+01 
2.5715934e+00 -4.4925034e+00 -4.2249978e+00 
-5.6233067e+00 4.9838961e+00 2.2473567e+00 
2.9879166e+00 -4.7197135e+00 -2.4228905e+00 
-6.1724698e+00 5.8116775e+00 1.6114125e+00 
3.6196837e+00 -5.2290358e+00 -5.8368083e-01 
-1.3877832e+01 1.1680272e+01 9.8934462e+00 
-7.0374557e+00 6.9090885e+00 2.2163419e-01 
4.5792089e+00 -6.0952612e+00 3.8428287e+00 
-8.1848442e+00 8.3331579e+00 -3.8923418e-01 
5.5896691e+00 -7.5502790e+00 6.7485214e+00 
-1.3924527e+01 9.0758778e+00 6.5473901e+00 
-9.6904958e+00 1.0219759e+01 -8.4145748e-01 
6.6973093e+00 -9.8782438e+00 1.0503876e+01 
-1.1527593e+01 1.2815698e+01 3.5718166e-01 
-1.3429516e+01 9.9415187e+00 8.4775139e+00 
7.3412406e+00 -1.3825163e+01 7.1569600e+00 
-1.3462929e+01 1.6454880e+01 8.4129288e+00 
-9.0297306e+01 -2.4336036e+02 8.9787493e+02 
-4.8474715e+00 -6.7821651e-01 3.7323135e+00 
-6.7058764e+00 -4.5875160e+00 3.5588117e+00 
5.6017900e+01 -2.3613195e+02 -9.4421221e+02 
-6.3762613e+00 -2.7499855e+00 7.5809872e-01 
-5.2098906e+00 -4.5831997e+00 4.3520411e-01 
-3.4180515e+00 1.0522367e+00 3.0026373e+00 
-3.0928009e+00 2.1783019e+00 8.2329577e+00 
-4.9231442e+00 7.8655011e+00 1.4301076e+01 
-8.9269486e+00 1.3733379e+01 1.8353392e+01 
-1.3348149e+01 1.3348585e+01 1.8362151e+01 
1.0104672e+02 2.4601845e+02 -1.9116511e+01 
2.9039365e+00 -3.8454066e+00 -5.4658445e+00 
-8.5211793e+01 1.8690881e+02 1.8621002e+01 
2.7641440e+00 -3.7226757e+00 -5.1198761e+00 
-5.1982978e+00 3.6787658e+00 2.4152444e+00 
-5.2824197e+00 4.2343654e+00 2.4284696e+00 
-1.6642662e+01 1.7048965e+01 1.4760706e+01 
2.9454364e+00 -3.7891713e+00 -4.3920292e+00 
-5.6513741e+00 5.0177629e+00 2.0908369e+00 
3.4456850e+00 -4.0392533e+00 -3.2431259e+00 
-6.3545650e+00 6.0525198e+00 1.0934397e+00 
4.3383170e+00 -4.4760457e+00 -1.7211527e-01 
-7.4069501e+00 7.3850402e+00 1.0030189e-01 
-1.7000436e+01 1.2816728e+01 9.5639396e+00 
5.4625728e+00 -5.1913985e+00 2.3330164e+00 
-9.0292805e+00 9.1351310e+00 -3.5781485e+00 
7.2592406e+00 -6.2185142e+00 1.3063415e+01 
-1.5861230e+01 1.0388412e+01 5.1795175e+00 
-1.1051967e+01 1.1373638e+01 -4.3100294e+00 
8.9290224e+00 -7.9641056e+00 1.8623747e+01 
-1.3755960e+01 1.4388227e+01 -5.0294429e+00 
-1.4351453e+01 1.0598615e+01 7.6784417e+00 
1.0296040e+01 -1.0946608e+01 1.9286681e+01 
-1.6660341e+01 1.8540329e+01 4.2240180e+00 
-1.1035858e+02 -2.5211200e+02 8.8743565e+02 
-8.4367392e+00 -5.2576675e-01 9.2419261e+00 
6.3465563e+01 -2.3458270e+02 -9.5628201e+02 
-9.3790858e+00 -4.2126033e+00 5.3509244e+00 
-7.4919435e+00 -1.2022478e+00 5.7916905e-01 
-4.5058180e+00 6.3121642e+00 4.0658909e-01 
-3.0818831e+00 -3.4691092e+00 3.4183522e+00 
-1.6202633e+00 1.1988218e+01 1.1304721e+01 
-4.5355199e+00 1.5670581e+01 2.0564535e+01 
-1.1213178e+01 1.5639274e+01 2.6131284e+01 
-1.9055802e+01 2.9665916e+01 2.4398424e+01 
1.0229699e+02 2.4618599e+02 -2.2876541e+01 
2.6644267e+00 -2.8786417e+00 -3.8841517e+00 
-8.6672851e+01 1.8908746e+02 2.3103018e+01 
-4.7600981e+00 3.3164022e+00 1.3706460e+00 
2.4085138e+00 -2.8824620e+00 -4.9761025e+00 
-2.1713089e+01 1.5833112e+01 1.5377075e+01 
-4.8117428e+00 4.0447608e+00 2.2242713e+00 
2.5162343e+00 -3.0425785e+00 -5.5673704e+00 
-5.2052451e+00 5.0254252e+00 2.3413482e+00 
3.0069553e+00 -3.3050575e+00 -4.7171257e+00 
-5.9589161e+00 6.2770531e+00 1.8530424e+00 
3.8303536e+00 -3.6705376e+00 -2.9525554e+00 
-2.1096411e+01 1.6669054e+01 7.5734788e+00 
-7.1866316e+00 7.8817232e+00 -5.1803864e-01 
5.1648189e+00 -4.1058726e+00 2.9942658e+00 
-8.8475449e+00 9.9338033e+00 -2.1228862e+00 
-1.8101439e+01 1.0868751e+01 1.3586847e+00 
6.4671223e+00 -4.7401412e+00 4.4897089e+00 
-1.1672883e+01 1.2746242e+01 -1.3302811e+01 
9.4424619e+00 -5.1464268e+00 3.6223964e+01 
-1.4993523e+01 1.6308443e+01 -1.3717583e+01 
-1.4586972e+01 1.2064042e+01 5.6131048e+00 
1.0776197e+01 -6.3114807e+00 4.2969123e+01 
-1.9170895e+01 2.0945439e+01 -6.2308241e+00 
-1.3813839e+02 -2.6062724e+02 8.7637249e+02 
7.2646342e+01 -2.2423288e+02 -9.7098802e+02 
-1.5001317e+01 -8.1219094e+00 1.0762537e+01 
-1.0186134e+01 4.5104220e+00 5.7589240e+00 
-8.3938668e+00 5.6766542e+00 4.3349544e-01 
-3.4218172e+00 3.0496055e+00 -2.5317941e+00 
2.1864243e+00 3.5300861e+01 7.1790228e+00 
-5.2427991e-01 -1.4697081e+00 1.5512401e+01 
-2.5631172e+00 2.1027191e+01 3.1495612e+01 
-1.7468989e+01 5.4078639e+01 4.2432173e+01 
-2.6694169e+01 1.0244337e+01 2.7148878e+01 
-8.7544437e+01 1.9084029e+02 2.7407096e+01 
1.0264004e+02 2.4638315e+02 -2.5274311e+01 
-3.8319925e+00 2.8523630e+00 5.8173131e-01 
1.6425748e+00 -1.8165961e+00 -2.4801481e+00 
-3.8323654e+00 3.7858889e+00 2.5931309e+00 
-2.8483806e+01 2.5367867e+01 1.4746918e+01 
1.2381829e+00 -1.9970544e+00 -6.4834507e+00 
-4.1998740e+00 4.9665273e+00 3.5855665e+00 
1.2438907e+00 -2.2228183e+00 -8.1276971e+00 
-4.9448009e+00 6.4232120e+00 3.2479814e+00 
1.5291616e+00 -2.4500866e+00 -8.2333672e+00 
-6.0837009e+00 8.2439777e+00 1.9165477e+00 
-2.6817932e+01 1.5707841e+01 2.2662488e+00 
2.0859343e+00 -2.6546092e+00 -6.5028750e+00 
-7.8591846e+00 1.0618119e+01 -3.6227048e+00 
2.8029588e+00 -2.8121869e+00 -4.6993622e+00 
-2.1467255e+01 9.0750751e+00 -6.6507341e+00 
-9.9137472e+00 1.3678144e+01 -4.4103349e+00 
4.2227389e+00 -2.6123214e+00 7.6671034e+00 
-1.4815899e+01 1.8462356e+01 -4.3739928e+01 
3.9644497e+00 -2.2873005e+00 -7.8025630e+00 
-1.4798959e+01 8.6860926e+00 1.8135427e-01 
-1.9650893e+01 2.4320428e+01 -3.2458458e+01 
8.6423494e+00 1.6975250e+00 9.6359081e+01 
8.5127570e+01 -2.0349033e+02 -9.9011955e+02 
-1.6037902e+02 -2.5712788e+02 8.6050196e+02 
-9.7100212e+00 2.5894671e+01 2.5111419e+00 
-7.1290212e+00 6.9811483e+00 9.9784431e+00 
-7.0192799e+00 1.0353414e+01 -8.8452197e-01 
-1.3550023e-01 2.0478341e+01 -7.3809308e+00 
1.8824841e+01 5.5022686e+00 -6.4031784e+00 
2.7633833e+01 1.1879037e+02 4.5276029e+01 
-8.7213023e+00 9.0166837e+01 6.2320068e+01 
-1.0123401e+01 -3.2154065e+00 3.9670704e+01 
-1.4731848e+01 4.2627813e+01 3.0820325e+01 
-8.7758372e+01 1.9196504e+02 2.9711416e+01 
-2.3283857e+00 2.3066154e+00 8.3770119e-01 
4.3541015e+02 1.7605172e+02 2.8468000e+01 
7.6766291e+02 1.0563429e+02 8.1845079e+01 
-2.5047388e+01 2.2973983e+01 9.8310449e+00 
-2.3083679e+00 3.4608161e+00 4.5026120e+00 
7.6485555e+02 1.0754143e+02 8.1130046e+01 
-2.6393806e+00 4.8101239e+00 6.2356597e+00 
7.6081667e+02 1.1078798e+02 7.9969357e+01 
-3.2640251e+00 6.4083081e+00 6.5708380e+00 
7.5546775e+02 1.1555296e+02 7.8420047e+01 
-4.2192367e+00 8.3849718e+00 5.3866905e+00 
-2.5939233e+01 3.1487022e+01 -5.5577980e+00 
7.4853641e+02 1.2211833e+02 7.5737919e+01 
-5.5293442e+00 1.0874764e+01 3.5034187e+00 
7.3974124e+02 1.3096185e+02 7.3651798e+01 
-1.9435991e+01 1.7584354e+01 -2.1082952e+01 
-7.6523814e+00 1.4271993e+01 -7.7774218e+00 
7.2807835e+02 1.4267534e+02 6.4425168e+01 
-8.7956700e+00 1.8192733e+01 4.6944580e+00 
7.1440932e+02 1.5896714e+02 7.4803981e+01 
-2.0826853e+00 2.1281026e+01 -1.9737741e+01 
-1.4542958e+01 2.6183744e+01 -1.2413152e+02 
6.9477985e+02 1.8053529e+02 3.6791829e+01 
1.1140059e+02 -1.8508495e+02 -1.0585856e+03 
6.6273624e+02 6.0537922e+02 3.5901287e+02 
7.9006457e+02 1.2128190e+03 -8.4150555e+01 
7.9587749e+02 1.2846081e+03 -1.0532389e+02 
8.1483055e+02 1.2454375e+03 -1.2745672e+02 
8.3757759e+02 1.1084022e+03 -1.3715531e+02 
8.6258769e+02 8.7647774e+02 -1.3098233e+02 
9.1627399e+02 4.5494448e+02 -8.1875218e+01 
8.4397190e+01 4.5913155e+01 4.7677074e+02 
-6.2952538e+02 -4.3313059e+02 2.4697816e+02 
7.2434859e+02 1.0425001e+02 7.8530042e+02 
-6.0284769e+02 -8.1745336e+02 2.0976284e+02 
-7.9147566e+02 1.3495133e+02 1.2874727e+00 
1.0558094e+03 1.3242914e+01 8.9349136e+02 
2.4577848e+02 5.1062831e+01 4.4170707e+01 
5.7956095e+02 -8.9795788e+01 5.8940392e+01 
5.8234063e+02 -9.0833719e+01 6.0671832e+01 
-6.9275071e+02 -9.3507592e+02 1.3285495e+02 
-1.6156356e+02 2.7430755e+01 -8.7400771e+00 
5.8666731e+02 -9.2836861e+01 6.4104215e+01 
-4.7161958e+02 3.7258226e+01 2.1856390e+01 
5.9262515e+02 -9.5837896e+01 6.8824688e+01 
-3.7408470e+03 1.0541743e+03 1.3904532e+03 
6.0046632e+02 -9.9955603e+01 7.5259919e+01 
-6.6242794e+02 -9.6685367e+02 7.7027681e+01 
1.7613487e+01 -1.7533080e+01 -2.1616272e+01 
-3.8158014e+02 8.0402441e+01 -1.2334603e+02 
6.1053677e+02 -1.0541426e+02 8.2982389e+01 
1.3443469e+03 2.5103737e+03 -2.4409651e+03 
1.9617186e+01 -1.6542468e+01 -1.8070351e+01 
-6.1432368e+02 -9.0756840e+02 2.5586962e+01 
6.7134786e+01 -9.7857704e+00 -4.3269995e+01 
1.1070990e+04 -3.4956021e+03 2.6633817e+03 
6.2347570e+02 -1.1248010e+02 9.4941021e+01 
1.5124714e+02 -1.3903770e+02 -6.1992240e+01 
6.3923108e+02 -1.2185969e+02 9.7218029e+01 
-5.7891689e+03 -7.3036501e+02 -8.1570780e+02 
3.1519508e+00 1.3473651e-01 -8.6354629e+00 
4.3547849e+01 -2.0989543e+01 -1.8927607e+01 
-5.8968453e+02 -7.7399092e+02 1.7869805e+01 
8.7724121e+00 -4.0469699e+01 -6.7003570e+01 
6.6072570e+02 -1.3347305e+02 1.5019820e+02 
1.9979709e+03 -4.9983087e+02 -1.3994326e+02 
1.9777103e+01 -1.4272024e+01 5.6430553e+00 
-3.0991945e+02 3.5875652e+01 4.0272134e+01 
7.7562920e+01 -4.4773380e+01 -1.4421167e+01 
9.4483681e+01 -4.8648188e+02 -8.6149832e+02 
1.1579359e+03 -4.2806893e+02 -1.2562057e+02 
1.4217022e+02 -1.7963203e+01 2.3942216e+01 
6.9589037e+01 -3.4620396e+01 1.0358924e+01 
1.1329404e+03 -3.9384310e+02 -1.0967953e+02 
1.7549277e+02 1.6910623e+00 -7.8570204e+02 
2.2134442e+01 -2.5690996e+01 2.2287472e+01 
1.1745859e+03 -3.9066184e+02 -1.0504860e+02 
-5.8262084e+01 -3.0945717e+01 -7.7405250e+02 
1.2096224e+03 -4.0082745e+02 -1.0545256e+02 
-8.1811990e+01 -3.8489800e+01 -7.4787014e+02 
5.5680721e+02 -2.1753703e+02 -4.2749971e+02 
ROTATION 3 3567  float
0.0000000e+00 0.0000000e+00 0.0000000e+00 
0.0000000e+00 0.0000000e+00 0.0000000e+00 
6.3780371e-04 9.3937704e-04 -3.8000405e-03 
2.9961584e-04 1.5502033e-03 -1.9158619e-03 
0.0000000e+00 0.0000000e+00 0.0000000e+00 
1.2241457e-03 2.6409634e-03 -2.0543545e-03 
8.3160336e-04 3.1694095e-03 -1.0858957e-03 
1.9579756e-04 1.9718725e-03 -1.3215345e-03 
6.6330875e-04 3.6902528e-03 -5.1698952e-04 
0.0000000e+00 0.0000000e+00 0.0000000e+00 
1.6974030e-03 4.3226369e-03 -7.5662364e-04 
1.3229620e-03 4.7562230e-03 -7.1115296e-04 
2.3146487e-04 2.3482485e-03 -3.2268494e-04 
1.1484953e-03 5.2052761e-03 -2.4007873e-04 
7.1826848e-04 4.1918502e-03 6.9176548e-05 
0.0000000e+00 0.0000000e+00 0.0000000e+00 
2.0598465e-03 5.8747175e-03 -4.2868391e-04 
1.7167910e-03 6.2032928e-03 -3.2044135e-04 
4.5345121e-04 2.8597770e-03 4.2415939e-04 
1.1607392e-03 5.6275526e-03 1.9622974e-04 
9.3813191e-04 4.6536597e-03 9.2413993e-04 
1.5371239e-03 6.5438650e-03 -7.5937007e-05 
0.0000000e+00 0.0000000e+00 0.0000000e+00 
2.3233393e-03 7.2743104e-03 -2.2586904e-04 
1.2938138e-03 5.9717398e-03 9.2664159e-04 
1.4955884e-03 6.8543983e-03 3.1296222e-04 
6.7322364e-04 3.5279367e-03 5.8979798e-03 
2.0070477e-03 7.5077871e-03 -1.3929566e-04 
1.2022487e-03 5.0129947e-03 2.4853526e-03 
1.8177239e-03 7.7476731e-03 5.7051010e-05 
1.5356580e-03 7.0948883e-03 7.1014313e-04 
1.4227549e-03 6.2106488e-03 1.6618835e-03 
1.7279097e-03 7.9596528e-03 3.0087176e-04 
-7.6009754e-04 3.8649522e-03 1.0399157e-02 
2.5032738e-03 8.5373077e-03 -1.8140776e-04 
7.8857397e-04 4.0150642e-03 6.5782210e-03 
2.2074000e-03 8.6928301e-03 -3.3979069e-05 
1.2486419e-03 5.3092437e-03 3.4369490e-03 
2.0069261e-03 8.8510907e-03 1.0647194e-04 
1.5789388e-03 7.2469978e-03 1.1142607e-03 
1.6926101e-03 8.1144228e-03 5.8951378e-04 
1.4568620e-03 6.3730723e-03 1.8413858e-03 
1.8767745e-03 8.9851099e-03 2.9703467e-04 
-9.7978104e-05 4.6186756e-03 5.8968941e-03 
2.6173803e-03 9.6892885e-03 -1.4720662e-04 
1.6545406e-03 8.1976310e-03 8.1473224e-04 
6.0577840e-04 4.8834084e-03 1.6138983e-03 
2.3364065e-03 9.7845303e-03 1.2063707e-05 
1.5468572e-03 7.3226605e-03 1.2510073e-03 
1.7813969e-03 9.0733481e-03 4.8623932e-04 
1.1151826e-03 5.6173605e-03 1.7376144e-03 
2.1250303e-03 9.8804234e-03 1.3327873e-04 
1.3415080e-03 6.5000776e-03 1.3531626e-03 
1.9620962e-03 9.9560841e-03 2.7795471e-04 
1.5595418e-03 8.2127582e-03 8.8439735e-04 
1.6783485e-03 9.1047026e-03 6.3999373e-04 
1.2621585e-04 4.9877069e-03 -4.6755311e-03 
2.6817222e-03 1.0755093e-02 -1.2441406e-04 
5.5556465e-04 5.4335594e-03 -2.0773310e-04 
1.3993536e-03 7.3438624e-03 9.0556368e-04 
2.4114646e-03 1.0805552e-02 3.7026198e-05 
1.8194433e-03 9.9956098e-03 4.2125293e-04 
2.1903995e-03 1.0855645e-02 1.4276050e-04 
9.0244757e-04 5.9695685e-03 -2.6190114e-04 
1.5250233e-03 9.0796205e-03 7.2174336e-04 
2.0013785e-03 1.0889449e-02 2.6280506e-04 
1.1032881e-03 6.6303257e-03 1.1626811e-04 
1.3647845e-03 8.1717388e-03 8.2311181e-04 
1.6645242e-03 9.9910040e-03 5.4064133e-04 
1.8222549e-03 1.0895374e-02 3.7847846e-04 
1.1190118e-03 7.3305600e-03 5.9593162e-04 
7.3281608e-04 6.2996372e-03 -9.1653306e-03 
2.7097919e-03 1.1755556e-02 -1.0204991e-04 
3.1423328e-04 5.3882248e-03 -5.7771888e-03 
2.4472265e-03 1.1773900e-02 5.1544271e-05 
6.7894284e-04 6.1915853e-03 -2.4336727e-03 
1.2850250e-03 9.0078674e-03 7.0863144e-04 
1.4645653e-03 9.9425422e-03 6.1462510e-04 
2.2181161e-03 1.1791560e-02 1.4714136e-04 
1.6279880e-03 1.0868143e-02 4.7758480e-04 
1.0388271e-03 8.0901731e-03 6.3691885e-04 
7.6099085e-04 6.6230279e-03 -4.4517078e-04 
2.0089322e-03 1.1796627e-02 2.5130500e-04 
6.7198169e-04 7.2218832e-03 2.1769723e-04 
1.8024546e-03 1.1780854e-02 3.5040376e-04 
1.1902773e-03 9.8600436e-03 6.5145728e-04 
0.0000000e+00 0.0000000e+00 0.0000000e+00 
2.7123394e-03 1.2707046e-02 -8.1366660e-05 
9.2875929e-04 8.9031837e-03 6.8121210e-04 
1.3934920e-03 1.0808739e-02 5.5287288e-04 
2.4553782e-03 1.2703211e-02 6.2531302e-05 
0.0000000e+00 0.0000000e+00 0.0000000e+00 
-2.1998579e-05 7.0669358e-03 -2.0900864e-04 
-6.5186047e-05 4.0704080e-03 9.2528315e-04 
2.2200182e-03 1.2698810e-02 1.5028390e-04 
0.0000000e+00 0.0000000e+00 0.0000000e+00 
4.2968619e-04 6.5506695e-03 1.1762727e-03 
-5.5994031e-05 3.0992857e-03 6.0380909e-04 
-3.5081941e-05 6.1554688e-03 1.1344302e-03 
1.5795625e-03 1.1741152e-02 4.3906277e-04 
5.5030689e-04 7.9673807e-03 5.8346155e-04 
-2.0394370e-04 4.6015266e-03 1.0126528e-03 
0.0000000e+00 0.0000000e+00 0.0000000e+00 
1.8604056e-04 6.6572904e-03 1.4276966e-03 
1.9958155e-03 1.2685142e-02 2.4387661e-04 
-7.0815982e-05 2.3536224e-03 5.4220231e-04 
-2.1596140e-04 6.9234235e-03 1.3619848e-03 
1.0966796e-03 1.0727259e-02 6.0365594e-04 
-2.3134232e-04 3.9850860e-03 8.3886297e-04 
-3.7564885e-04 5.7277418e-03 1.1281876e-03 
8.1845650e-04 9.7547838e-03 6.5979081e-04 
0.0000000e+00 0.0000000e+00 0.0000000e+00 
-4.5381683e-06 7.1814168e-03 1.3149841e-03 
1.7695883e-03 1.2656526e-02 3.3308622e-04 
4.3140578e-04 8.7918258e-03 6.9407100e-04 
-6.7353671e-05 2.0845844e-03 4.0149421e-04 
-3.8910010e-04 7.3540412e-03 1.2294647e-03 
1.3214720e-03 1.1679189e-02 5.1197822e-04 
-4.2140371e-04 5.1809733e-03 9.5356882e-04 
-2.2454172e-04 3.4938239e-03 6.5284232e-04 
-5.4827018e-04 6.6988548e-03 1.0655580e-03 
2.6976606e-03 1.3621932e-02 -6.3020887e-05 
2.4449222e-03 1.3603475e-02 7.2210857e-05 
2.2050725e-03 1.3584815e-02 1.5385643e-04 
0.0000000e+00 0.0000000e+00 0.0000000e+00 
-1.4688544e-04 7.8733982e-03 1.0064547e-03 
1.5269480e-03 1.2611491e-02 4.1470365e-04 
-4.1486004e-04 4.7830881e-03 7.6096113e-04 
-5.9594826e-04 6.2173592e-03 9.1898202e-04 
-6.1261068e-05 1.9126357e-03 2.8685667e-04 
-4.9786007e-04 7.8920548e-03 9.5994081e-04 
7.2129353e-04 1.0632030e-02 6.3590020e-04 
-2.1012787e-04 3.2432851e-03 4.7489756e-04 
-6.6223945e-04 7.4917651e-03 8.7670227e-04 
1.9702075e-03 1.3559764e-02 2.4036950e-04 
3.3434336e-04 9.6673515e-03 7.3073278e-04 
1.0122096e-03 1.1604939e-02 5.7114453e-04 
-5.9393865e-04 5.8871695e-03 7.5852571e-04 
-3.9586072e-04 4.5006592e-03 5.7138314e-04 
-7.2359452e-04 7.1751644e-03 7.9002314e-04 
1.2541182e-03 1.2552092e-02 4.8627308e-04 
0.0000000e+00 0.0000000e+00 0.0000000e+00 
-2.2337961e-04 8.6934545e-03 7.0193806e-04 
1.7304095e-03 1.3524568e-02 3.2300154e-04 
-5.7491450e-05 1.8193563e-03 1.7551940e-04 
-5.3614234e-04 8.4905834e-03 6.6454767e-04 
-2.0090530e-04 3.0881890e-03 3.0214610e-04 
-7.1106275e-04 8.2888014e-03 6.5180003e-04 
-5.7652988e-04 5.6500554e-03 5.9365699e-04 
-7.3325641e-04 6.9056721e-03 6.8291006e-04 
2.6719815e-03 1.4509294e-02 -4.6789759e-05 
-3.8356287e-04 4.3336637e-03 3.8300471e-04 
-7.9226796e-04 8.0631518e-03 6.2086100e-04 
2.6019636e-04 1.0568957e-02 7.3009077e-04 
2.4225932e-03 1.4481809e-02 8.1442060e-05 
6.4123585e-04 1.1523492e-02 6.1131818e-04 
1.4750368e-03 1.3478869e-02 4.0031365e-04 
2.1798603e-03 1.4454588e-02 1.5849902e-04 
9.3995596e-04 1.2487766e-02 5.4849553e-04 
0.0000000e+00 0.0000000e+00 0.0000000e+00 
-2.6331807e-04 9.5681858e-03 4.5273575e-04 
-5.8008772e-05 1.7749145e-03 6.7731081e-05 
-5.3398691e-04 9.1837765e-03 4.1551266e-04 
-7.2320539e-04 6.7100529e-03 5.6375231e-04 
-5.6394068e-04 5.4874946e-03 4.2549932e-04 
-8.1984231e-04 7.8702067e-03 5.7044480e-04 
-2.0350062e-04 3.0121483e-03 1.3111113e-04 
-7.1024591e-04 9.0899844e-03 4.4419910e-04 
1.9379140e-03 1.4423374e-02 2.3999952e-04 
1.1942003e-03 1.3424803e-02 4.7048180e-04 
-3.8797318e-04 4.2406748e-03 1.9538264e-04 
-8.0894820e-04 8.9369175e-03 4.5384755e-04 
1.6894274e-03 1.4385819e-02 3.1833355e-04 
-7.1280479e-04 6.5733612e-03 4.3771775e-04 
-8.2158963e-04 7.7134156e-03 5.0348348e-04 
2.0635380e-04 1.1482173e-02 7.2231051e-04 
0.0000000e+00 0.0000000e+00 0.0000000e+00 
-2.7979003e-04 1.0472977e-02 2.6980052e-04 
5.7807731e-04 1.2420469e-02 5.9317688e-04 
-5.6767038e-04 5.3969668e-03 2.5807859e-04 
-6.4411114e-05 1.7720311e-03 -4.6437597e-05 
-8.5501263e-04 8.7953217e-03 4.5045218e-04 
-5.1071547e-04 9.9418563e-03 2.2624561e-04 
-2.2279474e-04 2.9935845e-03 -4.7197987e-05 
-6.7989588e-04 9.9122297e-03 2.7768295e-04 
1.4266733e-03 1.4342282e-02 3.9272483e-04 
2.6398519e-03 1.5375647e-02 -3.2449223e-05 
8.8035931e-04 1.3371025e-02 5.3442394e-04 
2.3932911e-03 1.5343159e-02 9.0585123e-05 
-8.1521594e-04 7.6016297e-03 4.2756463e-04 
-7.8829946e-04 9.8033384e-03 3.1153830e-04 
-4.1598209e-04 4.2139270e-03 5.2451212e-06 
2.1490634e-03 1.5311420e-02 1.6420985e-04 
-7.1296898e-04 6.4904269e-03 3.1233233e-04 
-8.6993535e-04 8.6773771e-03 4.3097485e-04 
1.9028932e-03 1.5277618e-02 2.4220520e-04 
-5.9400737e-04 5.3653253e-03 9.4998369e-05 
-8.4857094e-04 9.7018186e-03 3.4143331e-04 
1.1427005e-03 1.4294759e-02 4.6198972e-04 
0.0000000e+00 0.0000000e+00 0.0000000e+00 
-2.8302622e-04 1.1389417e-02 1.4338477e-04 
1.6901343e-04 1.2397221e-02 7.1591112e-04 
-7.9360734e-05 1.8080924e-03 -1.7866544e-04 
-4.7842821e-04 1.0746120e-02 9.2449713e-05 
5.2992349e-04 1.3316699e-02 5.8173049e-04 
1.6494677e-03 1.5240407e-02 3.1759470e-04 
-8.1034815e-04 7.5323650e-03 3.5174497e-04 
-2.6513372e-04 3.0301301e-03 -2.4368469e-04 
-8.6860007e-04 8.5883921e-03 4.0256504e-04 
-6.3446969e-04 1.0752520e-02 1.5481244e-04 
-8.7497050e-04 9.6124307e-03 3.5898762e-04 
-7.2796441e-04 6.4598052e-03 1.9624605e-04 
-4.7363167e-04 4.2461723e-03 -1.8934963e-04 
-7.4454943e-04 1.0670685e-02 2.0112039e-04 
8.3255446e-04 1.4251043e-02 5.2699449e-04 
1.3832830e-03 1.5200569e-02 3.9009252e-04 
0.0000000e+00 0.0000000e+00 0.0000000e+00 
2.6045037e-03 1.6225567e-02 -1.9445198e-05 
0.0000000e+00 0.0000000e+00 0.0000000e+00 
5.5071233e-04 8.3018920e-04 4.5617846e-03 
-6.4473102e-04 5.3908528e-03 -5.6418623e-05 
-8.1281134e-04 1.0595838e-02 2.5173483e-04 
2.3604783e-03 1.6190889e-02 9.9766493e-05 
-8.5904645e-04 8.5323072e-03 3.7343993e-04 
2.4520669e-04 1.3464298e-03 2.4695406e-03 
0.0000000e+00 0.0000000e+00 0.0000000e+00 
1.0571469e-03 2.3648375e-03 3.2223846e-03 
0.0000000e+00 0.0000000e+00 0.0000000e+00 
-2.7790345e-04 1.2307559e-02 5.9775718e-05 
-8.0930269e-04 7.5043226e-03 2.8654958e-04 
-8.7865676e-04 9.5441435e-03 3.6938225e-04 
2.1159042e-03 1.6157406e-02 1.7089231e-04 
-4.4286579e-04 1.1579557e-02 2.3345568e-06 
1.3023775e-04 1.6655613e-03 1.9397416e-03 
6.7792649e-04 2.8130640e-03 1.9625339e-03 
-1.0805063e-04 1.8876219e-03 -3.4637617e-04 
1.4469261e-04 1.3308013e-02 7.1398113e-04 
-5.8275686e-04 1.1605653e-02 6.9504942e-05 
4.5879493e-04 3.2194631e-03 1.5360748e-03 
-3.4020012e-04 3.1252960e-03 -4.7114068e-04 
0.0000000e+00 0.0000000e+00 0.0000000e+00 
1.4778856e-03 3.9476715e-03 1.9990328e-03 
1.0995586e-03 1.5159842e-02 4.5879715e-04 
1.8677258e-03 1.6123367e-02 2.4640141e-04 
1.0076545e-04 1.8825772e-03 1.3505828e-03 
1.0905995e-03 4.3341582e-03 1.7410044e-03 
-7.5470651e-04 6.4772841e-03 1.0161187e-04 
-8.4719213e-04 1.0528581e-02 2.9479465e-04 
4.9442457e-04 1.4207962e-02 5.7641721e-04 
3.6988031e-04 3.5664593e-03 1.1885050e-03 
8.4087112e-04 4.7192960e-03 1.3236654e-03 
-5.6512184e-04 4.3431995e-03 -3.8549968e-04 
-6.8835916e-04 1.1539499e-02 1.2088233e-04 
0.0000000e+00 0.0000000e+00 0.0000000e+00 
1.8215036e-03 5.4774258e-03 1.5265950e-03 
1.6121658e-03 1.6088120e-02 3.1979471e-04 
-8.6591052e-04 9.5000212e-03 3.7841626e-04 
1.0101970e-04 2.0747378e-03 1.0118322e-03 
1.4506769e-03 5.7979031e-03 1.3282395e-03 
-8.4248577e-04 8.5090613e-03 3.5327732e-04 
7.1884822e-04 5.0877441e-03 1.0316592e-03 
3.6366185e-04 3.8830802e-03 8.4337892e-04 
1.2002852e-03 6.1322033e-03 1.1207585e-03 
-7.1295404e-04 5.4721875e-03 -1.8222010e-04 
-7.5878836e-04 1.1482237e-02 1.8276089e-04 
-8.0627506e-04 7.5164202e-03 2.4435945e-04 
-8.5503597e-04 1.0476184e-02 3.3330860e-04 
7.9514614e-04 1.5125192e-02 5.2471281e-04 
0.0000000e+00 0.0000000e+00 0.0000000e+00 
2.0966221e-03 6.9117099e-03 1.1136249e-03 
0.0000000e+00 0.0000000e+00 0.0000000e+00 
-2.6721727e-04 1.3221110e-02 6.6707744e-06 
7.0099331e-04 5.4382517e-03 7.6154783e-04 
1.0650324e-03 6.4645159e-03 8.7255924e-04 
1.3453843e-03 1.6052674e-02 3.9105517e-04 
-4.0647800e-04 1.2429663e-02 -5.5792821e-05 
1.2157997e-04 2.2828605e-03 7.1957780e-04 
1.7491401e-03 7.1677183e-03 1.0515567e-03 
-1.6100192e-04 2.0165480e-03 -5.7799744e-04 
-5.2942217e-04 1.2466246e-02 1.3174701e-05 
2.5681585e-03 1.7062203e-02 -7.3577153e-06 
4.1712983e-04 4.2090083e-03 5.6170444e-04 
1.5064858e-03 7.4401408e-03 9.0133864e-04 
-4.6121949e-04 3.3057696e-03 -7.3608848e-04 
-7.7855958e-04 6.5418265e-03 4.3977341e-05 
-7.9730283e-04 1.1430447e-02 2.4135977e-04 
1.3054270e-04 1.4210842e-02 7.1644730e-04 
2.3265217e-03 1.7027229e-02 1.0906315e-04 
1.0306848e-03 6.7818159e-03 6.4151669e-04 
-8.3756404e-04 9.4819616e-03 3.9335052e-04 
2.0825161e-03 1.6993833e-02 1.7837673e-04 
-6.2671546e-04 1.2408588e-02 6.5494844e-05 
-8.4084692e-04 1.0442611e-02 3.7019783e-04 
7.6664264e-04 5.7809564e-03 4.8655320e-04 
1.3624836e-03 7.7121636e-03 7.2878326e-04 
-6.8237224e-04 4.5104577e-03 -5.6053687e-04 
-8.1291239e-04 8.5180104e-03 3.5203009e-04 
0.0000000e+00 0.0000000e+00 0.0000000e+00 
2.3092458e-03 8.2404433e-03 8.5996731e-04 
1.0641740e-03 1.6018457e-02 4.5950778e-04 
1.6536080e-04 2.5418936e-03 4.4779234e-04 
1.9850213e-03 8.4365672e-03 8.2663022e-04 
4.6932425e-04 1.5091571e-02 5.7597546e-04 
1.8340030e-03 1.6961026e-02 2.5213396e-04 
5.3015177e-04 4.5747504e-03 2.8098516e-04 
1.7496139e-03 8.6466047e-03 7.2897529e-04 
-8.0800528e-04 1.1390356e-02 2.9803426e-04 
-7.8505995e-04 7.5669293e-03 2.3681840e-04 
-6.9493080e-04 1.2362407e-02 1.3228101e-04 
1.0772529e-03 7.0732592e-03 4.0845740e-04 
1.3037538e-03 7.9654462e-03 5.3514212e-04 
-7.6989802e-04 5.6105795e-03 -2.5205452e-04 
9.0285562e-04 6.1187260e-03 2.1386149e-04 
1.5946116e-03 8.8534013e-03 5.9438825e-04 
1.5783534e-03 1.6928622e-02 3.2416513e-04 
0.0000000e+00 0.0000000e+00 0.0000000e+00 
-2.5245462e-04 1.4126381e-02 -2.5460516e-05 
0.0000000e+00 0.0000000e+00 0.0000000e+00 
2.4669216e-03 9.4687933e-03 6.8517390e-04 
-2.6309441e-04 2.2717287e-03 -9.1042379e-04 
-7.8895588e-04 9.4897247e-03 4.2088077e-04 
-8.0541633e-04 1.0429570e-02 4.0987307e-04 
-3.7012331e-04 1.3287587e-02 -9.1545885e-05 
7.6662348e-04 1.5991706e-02 5.2626360e-04 
-7.3429617e-04 1.2321245e-02 1.9891551e-04 
2.4558793e-04 2.9004597e-03 1.6190092e-04 
1.3075581e-03 8.1802667e-03 3.3670516e-04 
2.1627220e-03 9.6120804e-03 6.6268085e-04 
-7.6548940e-04 6.6523181e-03 4.5598519e-05 
1.1766599e-03 7.3195621e-03 1.6502491e-04 
1.5051086e-03 9.0376883e-03 4.4167156e-04 
-6.2749913e-04 3.6097883e-03 -1.0235732e-03 
-4.7669502e-04 1.3329424e-02 -2.2158481e-05 
-7.9380381e-04 1.1365137e-02 3.5317135e-04 
7.1488262e-04 5.0035298e-03 -3.4052068e-05 
1.9312470e-03 9.7654968e-03 5.8939343e-04 
-7.5675334e-04 8.5576186e-03 3.7634061e-04 
1.3129512e-03 1.6897728e-02 3.9464726e-04 
1.2433348e-04 1.5103591e-02 7.2237887e-04 
-7.6427819e-04 4.7743421e-03 -6.6837697e-04 
-5.6379429e-04 1.3276036e-02 2.8992188e-05 
1.0864466e-03 6.4325750e-03 -8.0925308e-05 
1.7623835e-03 9.9127679e-03 4.8534614e-04 
2.5322806e-03 1.7887675e-02 4.1509240e-06 
-7.4651727e-04 1.2290036e-02 2.6577643e-04 
1.3366090e-03 8.3314957e-03 1.3088094e-04 
1.4563571e-03 9.1793172e-03 2.7508255e-04 
-7.1709248e-04 7.6513780e-03 2.7602783e-04 
2.2929732e-03 1.7853620e-02 1.1849882e-04 
2.0502430e-03 1.7821457e-02 1.8650380e-04 
0.0000000e+00 0.0000000e+00 0.0000000e+00 
2.5778769e-03 1.0608942e-02 5.7108940e-04 
-7.4027998e-04 5.8312441e-03 -2.4335369e-04 
-6.2701321e-04 1.3236572e-02 9.6758648e-05 
4.5265710e-04 1.5965914e-02 5.7917017e-04 
1.0357118e-03 1.6869466e-02 4.6305154e-04 
3.9863722e-04 3.4018402e-03 -2.2246045e-04 
1.2744535e-03 7.4884450e-03 -9.0607140e-05 
1.6401874e-03 1.0036489e-02 3.5962980e-04 
2.2897615e-03 1.0707786e-02 5.4241181e-04 
-7.4588820e-04 1.0437541e-02 4.5599581e-04 
9.6320339e-04 5.4507841e-03 -3.9849725e-04 
2.0591057e-03 1.0813433e-02 4.8271139e-04 
-7.1066875e-04 9.5221558e-03 4.6356614e-04 
-7.5550363e-04 1.1356746e-02 4.0864122e-04 
1.8026275e-03 1.7790731e-02 2.5902285e-04 
1.4098786e-03 9.2572099e-03 1.0162460e-04 
0.0000000e+00 0.0000000e+00 0.0000000e+00 
-2.3454929e-04 1.5021259e-02 -4.3448419e-05 
1.2226511e-03 6.6342123e-03 -3.9986153e-04 
1.8752325e-03 1.0911472e-02 3.9640099e-04 
-6.5658237e-04 6.8199013e-03 1.0263931e-04 
-6.6485910e-04 1.3202426e-02 1.6630836e-04 
-7.3321842e-04 1.2271367e-02 3.3140020e-04 
1.3282483e-03 8.3954935e-03 -8.6496618e-05 
1.5403409e-03 1.0120102e-02 2.2166680e-04 
-4.5979112e-04 2.6128597e-03 -1.3883150e-03 
-6.5422354e-04 8.6230990e-03 4.3133543e-04 
-3.3403357e-04 1.4147179e-02 -1.1206954e-04 
1.5483424e-03 1.7761558e-02 3.3013218e-04 
-6.7269805e-04 3.9994752e-03 -1.1774813e-03 
-4.2551717e-04 1.4191441e-02 -4.2882107e-05 
7.4555864e-04 1.6849462e-02 5.3059532e-04 
1.2541403e-03 7.5192254e-03 -3.6092391e-04 
1.7225041e-03 1.0987596e-02 2.9183130e-04 
0.0000000e+00 0.0000000e+00 0.0000000e+00 
2.6506320e-03 1.1675159e-02 4.9590999e-04 
1.2434348e-04 1.5985150e-02 7.3071271e-04 
6.7363603e-04 4.1437274e-03 -7.4761521e-04 
2.3750080e-03 1.1738204e-02 4.5559422e-04 
-6.1199234e-04 5.0928098e-03 -6.0660779e-04 
-5.0190022e-04 1.4139854e-02 6.1345403e-06 
-5.6504748e-04 7.7792747e-03 3.4345664e-04 
-6.7746044e-04 1.3177497e-02 2.3761306e-04 
1.2856576e-03 1.7735067e-02 4.0013913e-04 
1.0248386e-03 5.7945138e-03 -9.6677905e-04 
1.3101062e-03 9.2605634e-03 -7.7121610e-05 
1.4284790e-03 1.0149209e-02 7.6320009e-05 
2.1432264e-03 1.1805711e-02 4.0166634e-04 
-6.5681296e-04 1.0465735e-02 5.0835613e-04 
-6.9184389e-04 1.1365733e-02 4.6572562e-04 
-6.9516047e-04 1.2266888e-02 3.9575167e-04 
1.1855348e-03 8.3441797e-03 -2.9660575e-04 
1.5790162e-03 1.1029761e-02 1.7505192e-04 
-4.9233244e-04 6.0172992e-03 -1.1478697e-04 
-5.9099774e-04 9.5747111e-03 5.2292038e-04 
-5.5867016e-04 1.4104293e-02 7.2636748e-05 
1.0332461e-03 6.6835606e-03 -9.3027174e-04 
1.9450809e-03 1.1865612e-02 3.2626128e-04 
2.4977796e-03 1.8703374e-02 1.5286132e-05 
4.4278683e-04 1.6830088e-02 5.8493357e-04 
2.2607925e-03 1.8670965e-02 1.2806767e-04 
1.0132786e-03 1.7712098e-02 4.6862322e-04 
-6.6550506e-04 1.3163694e-02 3.0805865e-04 
9.2222612e-04 7.4577995e-03 -7.7316921e-04 
1.7663546e-03 1.1906850e-02 2.3571420e-04 
-4.8522426e-04 8.7230508e-03 4.9321275e-04 
2.0198687e-03 1.8640694e-02 1.9512220e-04 
1.2610572e-03 1.0122591e-02 -7.2146423e-05 
-3.8266638e-04 6.9101942e-03 2.3434807e-04 
-5.9351926e-04 1.4074635e-02 1.4189030e-04 
0.0000000e+00 0.0000000e+00 0.0000000e+00 
2.6932857e-03 1.2681150e-02 4.4640271e-04 
1.0877516e-03 9.1801054e-03 -2.4148192e-04 
1.4165767e-03 1.1029365e-02 5.2260971e-05 
-2.1415265e-04 1.5904648e-02 -5.2011323e-05 
-7.9531613e-05 4.4540522e-03 -1.6496848e-03 
2.4272869e-03 1.2716456e-02 3.9279835e-04 
-2.9824647e-04 1.5004282e-02 -1.2240875e-04 
1.7740367e-03 1.8612472e-02 2.6676475e-04 
6.7048552e-05 5.6844580e-03 -1.1508936e-03 
2.1936046e-03 1.2754811e-02 3.4054698e-04 
-6.0043193e-04 1.1391834e-02 5.2254196e-04 
-3.7621033e-04 1.5049467e-02 -5.3710709e-05 
-6.3221281e-04 1.2277315e-02 4.5846194e-04 
7.9332879e-04 8.2582114e-03 -6.2681470e-04 
1.5885188e-03 1.1921340e-02 1.3496112e-04 
-5.3252994e-04 1.0510356e-02 5.6706067e-04 
7.3068545e-04 1.7697780e-02 5.3688050e-04 
8.7618260e-05 6.4857197e-03 -5.8895109e-04 
1.9831641e-03 1.2786538e-02 2.7105646e-04 
-2.9954733e-04 7.8053050e-03 4.5790214e-04 
-6.0565474e-04 1.4053989e-02 2.1385113e-04 
1.5221233e-03 1.8586605e-02 3.3725158e-04 
-4.4219120e-04 1.4998336e-02 -7.1851931e-06 
1.2923867e-04 1.6855025e-02 7.4055484e-04 
-4.2125691e-04 9.6571245e-03 5.7484788e-04 
-6.2964320e-04 1.3162413e-02 3.7637463e-04 
9.9209426e-04 1.0038650e-02 -2.0198006e-04 
1.2031823e-03 1.0990655e-02 -7.2933947e-05 
-4.9200454e-04 1.4964900e-02 5.6888658e-05 
9.3346302e-05 7.2486878e-03 -1.3494605e-04 
1.7837677e-03 1.2803429e-02 1.8985370e-04 
6.7966893e-04 9.1028123e-03 -5.1408660e-04 
1.3895799e-03 1.1904496e-02 2.8800069e-05 
1.2630305e-03 1.8564196e-02 4.0698231e-04 
2.7130486e-03 1.3638832e-02 4.1290386e-04 
2.4545437e-03 1.3653398e-02 3.4695574e-04 
-5.9514048e-04 1.4043713e-02 2.8531931e-04 
-2.4204256e-04 8.7117296e-03 5.8741705e-04 
4.3837753e-04 1.7683641e-02 5.9243056e-04 
2.2190043e-03 1.3670278e-02 2.9416691e-04 
-5.4401445e-04 1.2302676e-02 5.1674454e-04 
-5.2309053e-04 1.4938008e-02 1.2400566e-04 
8.2733944e-05 8.0601823e-03 1.7879690e-04 
1.5804068e-03 1.2800380e-02 1.0021785e-04 
-4.7957757e-04 1.1431993e-02 5.7894331e-04 
2.4651675e-03 1.9510184e-02 2.6160184e-05 
9.0935206e-04 1.0913602e-02 -1.7925318e-04 
-1.9178160e-04 1.6776062e-02 -5.4336276e-05 
-3.7106737e-04 1.0582452e-02 6.0972072e-04 
-5.7040937e-04 1.3174330e-02 4.4117706e-04 
9.9601264e-04 1.8545841e-02 4.7561124e-04 
2.2305184e-03 1.9479801e-02 1.3773713e-04 
1.9987741e-03 1.3681965e-02 2.2758494e-04 
5.8868611e-04 9.9794732e-03 -4.3903136e-04 
1.1467510e-03 1.1863026e-02 -7.9460380e-05 
-2.6277487e-04 1.5856113e-02 -1.2601670e-04 
1.9917904e-03 1.9451743e-02 2.0409569e-04 
-3.2882401e-04 1.5901472e-02 -5.7962622e-05 
6.8516593e-05 8.9216513e-03 3.7574458e-04 
1.3564123e-03 1.2775231e-02 6.0847989e-06 
-5.3419829e-04 1.4920197e-02 1.9433338e-04 
1.7838228e-03 1.3682529e-02 1.5220184e-04 
-2.0399203e-04 9.6258935e-03 6.5223534e-04 
-5.6247970e-04 1.4044905e-02 3.5434777e-04 
1.7483625e-03 1.9426167e-02 2.7511384e-04 
-3.8516276e-04 1.5850107e-02 -1.3982713e-05 
1.3797372e-04 1.7713081e-02 7.5123765e-04 
7.2091622e-04 1.8536274e-02 5.4449187e-04 
2.7160028e-03 1.4557980e-02 3.8917751e-04 
1.4994971e-03 1.9403486e-02 3.4518106e-04 
5.1848880e-04 1.0872446e-02 -3.9448279e-04 
8.4129413e-04 1.1795819e-02 -1.7012945e-04 
-4.2810685e-04 1.5817711e-02 4.7152729e-05 
2.4634662e-03 1.4557576e-02 3.1276591e-04 
1.5623443e-03 1.3668918e-02 7.0132140e-05 
-4.3119691e-04 1.2340574e-02 5.7068830e-04 
2.2265588e-03 1.4559173e-02 2.5846470e-04 
-3.3083190e-04 1.1498383e-02 6.1468558e-04 
-4.8861408e-04 1.3199712e-02 4.9927081e-04 
5.3105828e-05 9.8139800e-03 4.8775477e-04 
1.0957460e-03 1.2735396e-02 -9.0382650e-05 
-5.2501401e-04 1.4912388e-02 2.6447968e-04 
1.2445410e-03 1.9384757e-02 4.1476016e-04 
1.9990615e-03 1.4557097e-02 1.9297938e-04 
-1.7894094e-04 1.0541792e-02 6.7516210e-04 
-5.0851346e-04 1.4058180e-02 4.1902233e-04 
-4.5515965e-04 1.5792443e-02 1.1120336e-04 
1.3218956e-03 1.3640293e-02 -1.5725252e-05 
4.3834477e-04 1.8526383e-02 6.0103699e-04 
-1.6787153e-04 1.7635377e-02 -5.2554355e-05 
1.7729755e-03 1.4547143e-02 1.2107075e-04 
-2.2765377e-04 1.6700838e-02 -1.2521639e-04 
4.6486813e-04 1.1769655e-02 -3.7209488e-04 
7.8635702e-04 1.2677873e-02 -1.7085896e-04 
-2.8330156e-04 1.6746026e-02 -5.7905842e-05 
3.8353556e-05 1.0720048e-02 5.4242905e-04 
-4.9588915e-04 1.4915420e-02 3.3222495e-04 
9.8312449e-04 1.9370367e-02 4.8355702e-04 
2.4346780e-03 2.0308641e-02 3.6817921e-05 
-4.6490866e-04 1.5776441e-02 1.7865688e-04 
2.2023976e-03 2.0280424e-02 1.4745866e-04 
1.9661438e-03 2.0254674e-02 2.1330240e-04 
-2.9687331e-04 1.2403969e-02 6.0196613e-04 
-3.3094741e-04 1.6694118e-02 -1.6386690e-05 
2.7070684e-03 1.5446327e-02 3.7119714e-04 
1.5391924e-03 1.4527604e-02 4.3928655e-05 
-3.8606006e-04 1.3236617e-02 5.5112479e-04 
1.0511704e-03 1.3603899e-02 -1.0409965e-04 
2.4594239e-03 1.5435530e-02 2.8645762e-04 
2.2218066e-03 1.5426647e-02 2.3034912e-04 
-1.6153352e-04 1.1454075e-02 6.7261957e-04 
-4.3460727e-04 1.4083916e-02 4.7604032e-04 
1.7255426e-03 2.0231701e-02 2.8387219e-04 
1.4971760e-04 1.8559372e-02 7.6229805e-04 
-3.6744010e-04 1.6662122e-02 4.1674757e-05 
7.1533047e-04 1.9364740e-02 5.5296275e-04 
-4.5683867e-04 1.5770296e-02 2.4617228e-04 
1.9893004e-03 1.5415486e-02 1.6497082e-04 
1.2884852e-03 1.4498276e-02 -3.6341896e-05 
1.4801621e-03 2.0211974e-02 3.5365547e-04 
2.5083422e-05 1.1627940e-02 5.6067442e-04 
4.2385567e-04 1.2663394e-02 -3.6450124e-04 
-4.4773721e-04 1.4929810e-02 3.9545945e-04 
7.4220321e-04 1.3554872e-02 -1.7803479e-04 
-3.9050039e-04 1.6637738e-02 1.0229466e-04 
1.7556652e-03 1.5399107e-02 9.4999599e-05 
1.2296568e-03 2.0196493e-02 4.2315777e-04 
-2.6631347e-04 1.3298478e-02 5.7990431e-04 
4.4180657e-04 1.9358282e-02 6.1030369e-04 
-4.3116587e-04 1.5774634e-02 3.1151803e-04 
-1.4279967e-04 1.8482663e-02 -4.8085174e-05 
1.0128081e-03 1.4465893e-02 -1.1928701e-04 
-1.4782008e-04 1.2358890e-02 6.5581936e-04 
1.5139635e-03 1.5376661e-02 2.0977554e-05 
-3.4300763e-04 1.4120476e-02 5.2624512e-04 
-1.9294230e-04 1.7537258e-02 -1.2155667e-04 
-3.9872704e-04 1.6622836e-02 1.6631376e-04 
2.6900952e-03 1.6309857e-02 3.5651639e-04 
-2.3955346e-04 1.7582146e-02 -5.5064252e-05 
2.4465840e-03 1.6292187e-02 2.6541570e-04 
1.3953360e-05 1.2530517e-02 5.5726161e-04 
2.2089174e-03 1.6276454e-02 2.0756888e-04 
-3.8208729e-04 1.4955980e-02 4.5094547e-04 
9.7391024e-04 2.0185471e-02 4.9211888e-04 
3.9240559e-04 1.3549377e-02 -3.6615657e-04 
-2.7949085e-04 1.7529594e-02 -1.5865467e-05 
2.4063543e-03 2.1099044e-02 4.7265335e-05 
1.2573640e-03 1.5348200e-02 -5.5616106e-05 
2.1764782e-03 2.1072972e-02 1.5717618e-04 
1.9732855e-03 1.6259619e-02 1.4181064e-04 
1.9428934e-03 2.1049473e-02 2.2263585e-04 
7.0670449e-04 1.4424058e-02 -1.8899272e-04 
-3.9152036e-04 1.6617765e-02 2.3057374e-04 
-3.1010233e-04 1.7497638e-02 3.9186470e-05 
1.6380030e-04 1.9394050e-02 7.7343079e-04 
-3.8874540e-04 1.5789868e-02 3.7259921e-04 
1.7348960e-03 1.6239661e-02 7.2828491e-05 
1.7053968e-03 2.1028946e-02 2.9288076e-04 
7.1315338e-04 2.0183087e-02 5.6195304e-04 
-2.3716551e-04 1.4181516e-02 5.5388150e-04 
-1.3511859e-04 1.3253858e-02 6.3205817e-04 
9.8007116e-04 1.5319877e-02 -1.3493135e-04 
-3.2938424e-04 1.7473673e-02 9.6338729e-05 
1.4637672e-03 2.1011882e-02 3.6247023e-04 
-3.0121347e-04 1.4992464e-02 4.9984585e-04 
5.4751450e-06 1.3424034e-02 5.4207121e-04 
1.4885106e-03 1.6216269e-02 7.1841393e-07 
-3.6898778e-04 1.6622980e-02 2.9298040e-04 
2.6680174e-03 1.7153133e-02 3.4369603e-04 
3.6840153e-04 1.4425596e-02 -3.7318840e-04 
2.4280992e-03 1.7131238e-02 2.4788215e-04 
-1.1689402e-04 1.9318093e-02 -4.1875484e-05 
1.2178686e-03 2.0999219e-02 4.3193789e-04 
2.1909665e-03 1.7111343e-02 1.8852605e-04 
-3.3105067e-04 1.5816411e-02 4.2633361e-04 
-3.3603657e-04 1.7459391e-02 1.5677502e-04 
4.4804129e-04 2.0179382e-02 6.1991512e-04 
-1.5871334e-04 1.8364602e-02 -1.1606760e-04 
1.2290707e-03 1.6189566e-02 -7.3486130e-05 
-1.9748704e-04 1.8409166e-02 -5.0453288e-05 
6.7821646e-04 1.5284135e-02 -2.0187126e-04 
1.9537090e-03 1.7091288e-02 1.2220097e-04 
-2.3065227e-04 1.8355981e-02 -1.3420621e-05 
9.6775081e-04 2.0991025e-02 5.0104501e-04 
-3.3186772e-04 1.6638798e-02 3.5157247e-04 
1.7126898e-03 1.7069716e-02 5.3650021e-05 
-3.2944750e-04 1.7454970e-02 2.1757706e-04 
-1.2175645e-04 1.4137712e-02 6.0584251e-04 
-2.0820386e-04 1.5052984e-02 5.2715615e-04 
3.5176463e-08 1.4306859e-02 5.2138708e-04 
-2.5599572e-04 1.8323875e-02 3.8781864e-05 
2.3801142e-03 2.1881534e-02 5.7489007e-05 
9.5235720e-04 1.6165168e-02 -1.5037723e-04 
1.7967482e-04 2.0217304e-02 7.8444408e-04 
2.1526787e-03 2.1857484e-02 1.6683355e-04 
1.9218954e-03 2.1836083e-02 2.3200525e-04 
3.5044303e-04 1.5291385e-02 -3.8306043e-04 
1.4639793e-03 1.7046660e-02 -1.7320819e-05 
-2.6017503e-04 1.5852886e-02 4.7414350e-04 
7.1373260e-04 2.0991287e-02 5.7121848e-04 
-2.7179499e-04 1.8300046e-02 9.2602586e-05 
1.6876771e-03 2.1817779e-02 3.0201285e-04 
2.6430213e-03 1.7979605e-02 3.3193399e-04 
2.4063076e-03 1.7955438e-02 2.3270118e-04 
-3.0964453e-04 1.7460734e-02 2.7686025e-04 
-2.8147503e-04 1.6665599e-02 4.0346325e-04 
6.5556271e-04 1.6134687e-02 -2.1545239e-04 
2.1701884e-03 1.7933338e-02 1.7211296e-04 
1.2038340e-03 1.7022221e-02 -8.9986461e-05 
1.4499453e-03 2.1803059e-02 3.7146825e-04 
-2.7689017e-04 1.8286069e-02 1.4953703e-04 
1.9324664e-03 1.7911814e-02 1.0519720e-04 
-9.0438858e-05 2.0141875e-02 -3.4559288e-05 
-1.2504367e-04 1.9182380e-02 -1.0943536e-04 
4.5645404e-04 2.0989767e-02 6.2965442e-04 
-1.5701746e-04 1.9226646e-02 -4.4748462e-05 
-2.1237312e-06 1.5178568e-02 4.9897628e-04 
-1.0680586e-04 1.5009946e-02 5.7977310e-04 
1.2087029e-03 2.1792800e-02 4.4092311e-04 
1.6904080e-03 1.7889983e-02 3.6771961e-05 
-1.7877337e-04 1.5912981e-02 5.0154000e-04 
-1.8425966e-04 1.9172889e-02 -9.7337398e-06 
-2.7723543e-04 1.7476914e-02 3.3285388e-04 
9.2916628e-04 1.7001578e-02 -1.6524069e-04 
-2.7069898e-04 1.8282002e-02 2.0691941e-04 
3.3761489e-04 1.6146782e-02 -3.9421163e-04 
-2.0493009e-04 1.9140548e-02 3.9814792e-05 
-2.1964160e-04 1.6702034e-02 4.5028505e-04 
1.4410850e-03 1.7868100e-02 -3.3538261e-05 
9.6410506e-04 2.1786952e-02 5.1015155e-04 
1.9688996e-04 2.1029330e-02 7.9522357e-04 
2.3557956e-03 2.2656148e-02 6.7469180e-05 
2.1308355e-03 2.2633934e-02 1.7637962e-04 
2.6167037e-03 1.8791864e-02 3.2080551e-04 
6.3792628e-04 1.6975751e-02 -2.2901147e-04 
-2.1756774e-04 1.9116690e-02 9.0518318e-05 
2.3829134e-03 1.8766836e-02 2.1912805e-04 
1.9029410e-03 2.2614421e-02 2.4133546e-04 
-2.5319546e-04 1.8288072e-02 2.6309856e-04 
1.1817365e-03 1.7846218e-02 -1.0521118e-04 
2.1481870e-03 1.8743939e-02 1.5757368e-04 
-2.3334465e-04 1.7503846e-02 3.8287713e-04 
7.1651709e-04 2.1789347e-02 5.8058624e-04 
-9.0707162e-07 1.6039320e-02 4.7692968e-04 
1.6721017e-03 2.2598080e-02 3.1116887e-04 
1.9108831e-03 1.8722179e-02 9.0122970e-05 
-8.9853277e-05 1.5870506e-02 5.5520627e-04 
-2.2116245e-04 1.9102816e-02 1.4414501e-04 
1.4383330e-03 2.2585380e-02 3.8052998e-04 
-1.4860740e-04 1.6761716e-02 4.7790760e-04 
-6.3679311e-05 2.0954226e-02 -2.6563706e-05 
9.1011090e-04 1.7829167e-02 -1.7934040e-04 
1.6689669e-03 1.8701018e-02 2.1671609e-05 
-9.2007575e-05 1.9990288e-02 -1.0211918e-04 
3.2929903e-04 1.6992109e-02 -4.0574082e-04 
-1.1807113e-04 2.0034300e-02 -3.8400526e-05 
-2.2486679e-04 1.8304437e-02 3.1651262e-04 
4.6655040e-04 2.1789536e-02 6.3937545e-04 
1.2017267e-03 2.2577139e-02 4.4998185e-04 
-1.4013919e-04 1.9980053e-02 -5.2704741e-06 
-2.1518322e-04 1.9098904e-02 1.9826964e-04 
1.4202746e-03 1.8680855e-02 -4.8263635e-05 
-1.7953313e-04 1.7540181e-02 4.2873622e-04 
6.2473250e-04 1.7807546e-02 -2.4215880e-04 
-1.5668324e-04 1.9947451e-02 4.1822194e-05 
9.6250073e-04 2.2573207e-02 5.1930573e-04 
2.5902059e-03 1.9591836e-02 3.1010085e-04 
3.6466225e-06 1.6889504e-02 4.5627353e-04 
1.1627881e-03 1.8661690e-02 -1.1928923e-04 
2.3591368e-03 1.9566948e-02 2.0668919e-04 
2.1507030e-04 2.1830314e-02 8.0570615e-04 
2.1260977e-03 1.9544248e-02 1.4439785e-04 
-1.8665365e-04 1.8331390e-02 3.6468087e-04 
-1.9957296e-04 1.9105106e-02 2.5147062e-04 
-7.0817963e-05 1.6719578e-02 5.3272392e-04 
-1.6647368e-04 1.9923475e-02 8.9646215e-05 
2.3331891e-03 2.3422859e-02 7.7187112e-05 
1.8898771e-03 1.9523110e-02 7.6498116e-05 
2.1107367e-03 2.3402256e-02 1.8577119e-04 
7.2103912e-04 2.2577295e-02 5.8993583e-04 
3.2504342e-04 1.7827753e-02 -4.1717179e-04 
-1.1768117e-04 1.7599437e-02 4.5656000e-04 
1.8857860e-03 2.3384393e-02 2.5056631e-04 
8.9488814e-04 1.8648077e-02 -1.9262571e-04 
-1.6864458e-04 1.9909583e-02 1.4020283e-04 
1.6489776e-03 1.9503247e-02 7.9576036e-06 
1.6583759e-03 2.3369741e-02 3.2027184e-04 
-3.6825996e-05 2.1755355e-02 -1.8178424e-05 
-1.7471856e-04 1.9121527e-02 3.0239132e-04 
-5.9673814e-05 2.0788145e-02 -9.4428295e-05 
1.4285811e-03 2.3358743e-02 3.8956560e-04 
1.4018201e-03 1.9485152e-02 -6.1767354e-05 
-1.3987129e-04 1.8367565e-02 4.0955843e-04 
-8.0586162e-05 2.0831950e-02 -3.1712015e-05 
4.7791628e-04 2.2578787e-02 6.4898191e-04 
-1.6272576e-04 1.9905694e-02 1.9128413e-04 
6.1555402e-04 1.8630313e-02 -2.5472137e-04 
-9.8129656e-05 2.0777297e-02 -3.5135857e-07 
1.1390800e-05 1.7729531e-02 4.3739446e-04 
1.1965471e-03 2.3352162e-02 4.5901769e-04 
1.1469530e-03 1.9468772e-02 -1.3236159e-04 
2.5643233e-03 2.0380943e-02 2.9972481e-04 
-1.1103386e-04 2.0744439e-02 4.4469649e-05 
2.3358332e-03 2.0356884e-02 1.9508540e-04 
-4.9817823e-05 1.7557447e-02 5.1245492e-04 
2.1047097e-03 2.0335064e-02 1.3224221e-04 
-1.4140121e-04 1.9148415e-02 3.4873729e-04 
-1.4864647e-04 1.9911913e-02 2.4168026e-04 
2.3390122e-04 2.2620426e-02 8.1586160e-04 
9.6252527e-04 2.3349763e-02 5.2841297e-04 
1.8700721e-03 2.0315131e-02 6.3983010e-05 
3.2447957e-04 1.8654040e-02 -4.2828465e-04 
-1.1826870e-04 2.0720305e-02 8.9645759e-05 
-8.6104635e-05 1.8426390e-02 4.3747226e-04 
8.8324567e-04 1.9458447e-02 -2.0512386e-04 
1.6308359e-03 2.0296976e-02 -4.6622463e-06 
2.3120603e-03 2.4181600e-02 8.6628652e-05 
2.0921451e-03 2.4162367e-02 1.9497415e-04 
-1.1910006e-04 2.0706325e-02 1.3737482e-04 
7.2689935e-04 2.3355163e-02 5.9918469e-04 
1.8701706e-03 2.4145901e-02 2.5965132e-04 
-1.2671602e-04 1.9928297e-02 2.9022512e-04 
-1.0072861e-04 1.9184388e-02 3.9259547e-04 
1.3858704e-03 2.0281154e-02 -7.4268531e-05 
-1.0059651e-05 2.2545450e-02 -9.6011508e-06 
6.1004441e-04 1.9444242e-02 -2.6665423e-04 
-2.8104606e-05 2.1575846e-02 -8.6572197e-05 
2.2101112e-05 1.8559743e-02 4.2032208e-04 
1.6462059e-03 2.4132660e-02 3.2926362e-04 
-4.4511808e-05 2.1619489e-02 -2.4887285e-05 
-1.1312096e-04 2.0702381e-02 1.8563931e-04 
1.4203605e-03 2.4123059e-02 3.9850870e-04 
1.1341598e-03 2.0267561e-02 -1.4456651e-04 
-5.8088612e-05 2.1564507e-02 4.8011138e-06 
4.9020221e-04 2.3357615e-02 6.5841216e-04 
-2.7075912e-05 1.8384408e-02 4.9428531e-04 
2.5395911e-03 2.1160208e-02 2.8963896e-04 
2.3135846e-03 2.1137437e-02 1.8412700e-04 
-9.7585563e-05 1.9955064e-02 3.3479365e-04 
2.0845552e-03 2.1116953e-02 1.2087521e-04 
-6.7777729e-05 2.1531418e-02 4.7513834e-05 
1.1928097e-03 2.4117810e-02 4.6796105e-04 
3.2727636e-04 1.9471200e-02 -4.3900414e-04 
-5.4049949e-05 1.9242791e-02 4.2045401e-04 
1.8518766e-03 2.1098603e-02 5.2336960e-05 
-1.0025993e-04 2.0708541e-02 2.3341782e-04 
8.7495434e-04 2.0260365e-02 -2.1690157e-04 
-7.2718805e-05 2.1507114e-02 9.0253559e-05 
2.5311718e-04 2.3399816e-02 8.2568014e-04 
1.6147816e-03 2.1082407e-02 -1.6405986e-05 
9.6381735e-04 2.4116608e-02 5.3740697e-04 
-7.2294816e-05 2.1493010e-02 1.3538291e-04 
3.5504146e-05 1.9380382e-02 4.0490779e-04 
6.0789687e-04 2.0249444e-02 -2.7798129e-04 
1.3724839e-03 2.1068955e-02 -8.5942983e-05 
-6.2194553e-05 1.9990810e-02 3.7759247e-04 
-8.0769641e-05 2.0724831e-02 2.7971562e-04 
2.2921648e-03 2.4932279e-02 9.5785399e-05 
7.3375479e-04 2.4122988e-02 6.0827759e-04 
2.0748133e-03 2.4914169e-02 2.0396339e-04 
1.6464449e-05 2.3324678e-02 -9.6744796e-07 
1.8558322e-03 2.4898846e-02 2.6855610e-04 
-2.8588765e-06 1.9200728e-02 4.7798955e-04 
2.6441844e-06 2.2353336e-02 -7.8693398e-05 
1.1243043e-03 2.1058096e-02 -1.5603030e-04 
-6.6160378e-05 2.1488967e-02 1.8104837e-04 
-9.8073443e-06 2.2396857e-02 -1.8065015e-05 
1.6353068e-03 2.4886748e-02 3.3810158e-04 
2.5163505e-03 2.1930354e-02 2.7982977e-04 
3.3311768e-04 2.0279357e-02 -4.4932880e-04 
-1.9893826e-05 2.2341614e-02 1.0031497e-05 
2.2927694e-03 2.1909155e-02 1.7369189e-04 
5.0311102e-04 2.4126104e-02 6.6762838e-04 
1.4133652e-03 2.4878257e-02 4.0731138e-04 
2.0659762e-03 2.1890291e-02 1.1013901e-04 
-5.5199373e-05 2.0751443e-02 3.2255964e-04 
-2.1706125e-05 2.0048818e-02 4.0524802e-04 
8.6979049e-04 2.1053855e-02 -2.2804037e-04 
-2.6734245e-05 2.2308324e-02 5.0776861e-05 
1.8355404e-03 2.1873753e-02 4.1388290e-05 
-5.4252291e-05 2.1495025e-02 2.2639284e-04 
1.1901950e-03 2.4874040e-02 4.7676280e-04 
1.6009384e-03 2.1859647e-02 -2.7436709e-05 
-2.9611726e-05 2.2283855e-02 9.1266634e-05 
2.7249263e-04 2.4168613e-02 8.3516434e-04 
5.1302130e-05 2.0191591e-02 3.9093219e-04 
6.0882182e-04 2.1045954e-02 -2.8875758e-04 
9.6605936e-04 2.4873732e-02 5.4624240e-04 
1.3616488e-03 2.1848583e-02 -9.6930490e-05 
-2.4355181e-05 2.0786957e-02 3.6426688e-04 
-2.8011711e-05 2.2269617e-02 1.3400131e-04 
-3.6784034e-05 2.1511190e-02 2.7057309e-04 
2.2561067e-05 2.0006623e-02 4.6330761e-04 
1.1172523e-03 2.1840363e-02 -1.6686292e-04 
7.4130886e-04 2.4880804e-02 6.1717876e-04 
4.2612467e-05 2.4093184e-02 7.6296123e-06 
2.2732582e-03 2.5674794e-02 1.0465452e-04 
3.2522410e-05 2.3120596e-02 -7.0888899e-05 
3.4169460e-04 2.1078551e-02 -4.5928906e-04 
2.0584941e-03 2.5657566e-02 2.1272196e-04 
-2.1646771e-05 2.2265453e-02 1.7726743e-04 
2.4947996e-03 2.2691864e-02 2.7029258e-04 
2.3559199e-05 2.3164027e-02 -1.1339350e-05 
1.8425130e-03 2.5643136e-02 2.7725659e-04 
2.2736146e-03 2.2672396e-02 1.6369917e-04 
2.0491732e-03 2.2655310e-02 9.9924141e-05 
-1.4227031e-05 2.1537631e-02 3.1175145e-04 
1.6557697e-05 2.3108581e-02 1.5230931e-05 
1.0746991e-05 2.0844605e-02 3.9158676e-04 
1.6254073e-03 2.5631922e-02 3.4675562e-04 
8.6752720e-04 2.1838887e-02 -2.3862181e-04 
1.8211950e-03 2.2640699e-02 3.1013247e-05 
5.1638817e-04 2.4884328e-02 6.7660900e-04 
1.4073118e-03 2.5624273e-02 4.1594012e-04 
1.2252558e-05 2.3075121e-02 5.4128590e-05 
-1.0467794e-05 2.2271389e-02 2.2034973e-04 
1.5893431e-03 2.2628727e-02 -3.7876883e-05 
6.9192145e-05 2.0993432e-02 3.7816501e-04 
6.1253705e-04 2.1833742e-02 -2.9904699e-04 
1.1884153e-03 2.5620814e-02 4.8538926e-04 
1.1239467e-05 2.3050503e-02 9.2529560e-05 
1.3532995e-03 2.2620008e-02 -1.0734133e-04 
1.2717556e-05 2.1572920e-02 3.5234736e-04 
2.9183454e-04 2.4926929e-02 8.4432384e-04 
5.3374537e-06 2.2287414e-02 2.6253760e-04 
4.8927718e-05 2.0802259e-02 4.4998693e-04 
1.3943961e-05 2.3036131e-02 1.3304991e-04 
9.6897083e-04 2.5621131e-02 5.5488932e-04 
1.1128441e-03 2.2614294e-02 -1.7715677e-04 
3.5270517e-04 2.1868753e-02 -4.6892408e-04 
2.4750313e-03 2.3445042e-02 2.6102425e-04 
2.0600122e-05 2.3031841e-02 1.7409547e-04 
6.8268449e-05 2.4851093e-02 1.6126371e-05 
7.4930340e-04 2.5628641e-02 6.2586634e-04 
2.2562363e-03 2.3427369e-02 1.5409302e-04 
6.1484888e-05 2.3877623e-02 -6.3224363e-05 
4.3151718e-05 2.1630251e-02 3.7922173e-04 
8.6793203e-04 2.2615380e-02 -2.4871974e-04 
2.2551021e-03 2.6409040e-02 1.1323792e-04 
2.5356239e-05 2.2313686e-02 3.0211363e-04 
5.5612385e-05 2.3920989e-02 -4.7737927e-06 
2.0342424e-03 2.3412126e-02 9.0152892e-05 
2.0429466e-03 2.6392458e-02 2.2123992e-04 
1.8299654e-03 2.6378684e-02 2.8573720e-04 
1.8088841e-03 2.3399475e-02 2.1121411e-05 
5.1351836e-05 2.3865389e-02 2.0323450e-05 
8.8879977e-05 2.1785906e-02 3.6639521e-04 
1.6162518e-03 2.6368109e-02 3.5520567e-04 
3.1239601e-05 2.3037650e-02 2.1507286e-04 
5.2981383e-04 2.5632351e-02 6.8534348e-04 
1.5799672e-03 2.3389614e-02 -4.7818960e-05 
4.9315632e-05 2.3831790e-02 5.7474190e-05 
6.1876552e-04 2.2612729e-02 -3.0891054e-04 
1.4019396e-03 2.6361053e-02 4.2437258e-04 
1.3473289e-03 2.3383151e-02 -1.1726197e-04 
4.8970102e-05 2.2348766e-02 3.4159229e-04 
4.9996848e-05 2.3807041e-02 9.3924355e-05 
7.6011620e-05 2.1587753e-02 4.3780218e-04 
1.1872110e-03 2.6358104e-02 4.9381847e-04 
4.5690424e-05 2.3053535e-02 2.5538714e-04 
3.1097646e-04 2.5674858e-02 8.5317193e-04 
5.3743873e-05 2.3792545e-02 1.3238734e-04 
3.6585778e-04 2.2649891e-02 -4.7827051e-04 
1.1109003e-03 2.3379788e-02 -1.8698747e-04 
9.7230284e-04 2.6358804e-02 5.6332910e-04 
2.4570634e-03 2.4190048e-02 2.5202047e-04 
2.2406695e-03 2.4174168e-02 1.4483307e-04 
7.5377396e-05 2.2405824e-02 3.6793604e-04 
6.0742336e-05 2.3788135e-02 1.7137067e-04 
8.7076890e-04 2.3383223e-02 -2.5839709e-04 
9.3331257e-05 2.5598510e-02 2.4479791e-05 
2.0212037e-03 2.4160767e-02 8.0768610e-05 
6.3583977e-05 2.3079644e-02 2.9342743e-04 
8.9490675e-05 2.4624425e-02 -5.5743598e-05 
7.5751202e-04 2.6366526e-02 6.3432823e-04 
1.1008928e-04 2.2568972e-02 3.5544318e-04 
8.6370660e-05 2.4667749e-02 1.5895189e-06 
1.7985875e-03 2.4150050e-02 1.1645687e-05 
2.2374680e-03 2.7134915e-02 1.2154119e-04 
8.4559848e-05 2.4612034e-02 2.5256617e-05 
2.0279397e-03 2.7118755e-02 2.2951297e-04 
1.5727352e-03 2.4142231e-02 -5.7333178e-05 
1.8179543e-03 2.7105409e-02 2.9398918e-04 
6.2723719e-04 2.3382810e-02 -3.1840097e-04 
7.1004844e-05 2.3793820e-02 2.1038565e-04 
8.4567720e-05 2.4578324e-02 6.0745144e-05 
5.4319661e-04 2.6370227e-02 6.9382858e-04 
1.6076014e-03 2.7095244e-02 3.6343954e-04 
1.3436008e-03 2.4137901e-02 -1.2675988e-04 
8.4367722e-05 2.3114538e-02 3.3179594e-04 
1.0361400e-04 2.2363183e-02 4.2656216e-04 
1.3970088e-03 2.7088550e-02 4.3259500e-04 
8.6800060e-05 2.4553463e-02 9.5362381e-05 
3.8087532e-04 2.3421867e-02 -4.8735796e-04 
8.4368247e-05 2.3809571e-02 2.4893809e-04 
1.1112285e-03 2.4136716e-02 -1.9641569e-04 
1.1863470e-03 2.7085883e-02 5.0203718e-04 
3.2977357e-04 2.6412477e-02 8.6172357e-04 
9.1538349e-05 2.4538858e-02 1.3190418e-04 
1.0732051e-04 2.3171365e-02 3.5754746e-04 
9.7583321e-04 2.7086749e-02 5.7155131e-04 
2.4408607e-03 2.4926936e-02 2.4327526e-04 
8.7580212e-04 2.4142286e-02 -2.6770539e-04 
2.2268919e-03 2.4912801e-02 1.3588871e-04 
1.0049729e-04 2.3835534e-02 2.8551134e-04 
1.3256699e-04 2.3342566e-02 3.4516304e-04 
9.8924570e-05 2.4534337e-02 1.6896506e-04 
2.0100226e-03 2.4901194e-02 7.1728825e-05 
1.1771195e-04 2.6335524e-02 3.2661467e-05 
1.7902394e-03 2.4892341e-02 2.5354626e-06 
1.1650242e-04 2.5361019e-02 -4.8475012e-05 
1.1584752e-04 2.5404317e-02 7.7234814e-06 
7.6573467e-04 2.7094483e-02 6.4255924e-04 
6.3769246e-04 2.4143862e-02 -3.2756129e-04 
1.5675380e-03 2.4886463e-02 -6.6473290e-05 
1.1624082e-04 2.5348518e-02 2.9994939e-05 
1.0895194e-04 2.4539907e-02 2.0614638e-04 
2.2201388e-03 2.7852320e-02 1.2957260e-04 
2.0132543e-03 2.7836371e-02 2.3754124e-04 
1.8062579e-03 2.7823239e-02 3.0200906e-04 
1.3156677e-04 2.3128597e-02 4.1610957e-04 
1.1810442e-04 2.5314721e-02 6.3892568e-05 
1.3419593e-03 2.4884126e-02 -1.3588762e-04 
1.1889284e-04 2.3870263e-02 3.2278807e-04 
5.5636836e-04 2.7098002e-02 7.0206594e-04 
1.5992334e-03 2.7813268e-02 3.7145109e-04 
3.9749910e-04 2.4184571e-02 -4.9620827e-04 
1.2176936e-04 2.5289769e-02 9.6777757e-05 
1.3922989e-03 2.7806723e-02 4.4060009e-04 
1.1136299e-03 2.4884937e-02 -2.0548944e-04 
1.2146141e-04 2.4555538e-02 2.4304176e-04 
1.2745893e-04 2.5275069e-02 1.3151672e-04 
3.4809869e-04 2.7139852e-02 8.6999412e-04 
1.1856099e-03 2.7804131e-02 5.1003862e-04 
1.3890242e-04 2.3926900e-02 3.4790636e-04 
8.8280107e-04 2.4892426e-02 -2.7668572e-04 
1.5608604e-04 2.4106614e-02 3.3543986e-04 
2.4263521e-03 2.5655681e-02 2.3478129e-04 
2.2148418e-03 2.5643213e-02 1.2723572e-04 
2.0006271e-03 2.5633318e-02 6.3000833e-05 
1.3614327e-04 2.4581370e-02 2.7821773e-04 
9.7936232e-04 2.7804965e-02 5.7955146e-04 
1.3527596e-04 2.5270451e-02 1.6677872e-04 
1.7837433e-03 2.5626235e-02 -6.2480878e-06 
1.4133154e-04 2.7062208e-02 4.0653474e-05 
6.4988588e-04 2.4895756e-02 -3.3642524e-04 
1.4248575e-04 2.6087422e-02 -4.1436090e-05 
1.5642455e-03 2.5622175e-02 -7.5280789e-05 
1.4405247e-04 2.6130708e-02 1.3611604e-05 
7.7379304e-04 2.7812531e-02 6.5055894e-04 
1.4519469e-04 2.5275920e-02 2.0224286e-04 
1.4644384e-04 2.6074851e-02 3.4515130e-05 
1.5973045e-04 2.3884021e-02 4.0631746e-04 
1.3422383e-03 2.5621677e-02 -1.4468615e-04 
1.5254243e-04 2.4615960e-02 3.1443011e-04 
1.5000705e-04 2.6040988e-02 6.6882131e-05 
2.2029100e-03 2.8561166e-02 1.3734219e-04 
1.9986833e-03 2.8545227e-02 2.4532817e-04 
4.1549166e-04 2.4937893e-02 -5.0483654e-04 
1.7946683e-03 2.8532108e-02 3.0979739e-04 
5.6917991e-04 2.7815712e-02 7.1006031e-04 
1.1179061e-03 2.5624301e-02 -2.1424642e-04 
1.5500865e-04 2.6015963e-02 9.8121990e-05 
1.5909405e-03 2.8522131e-02 3.7923875e-04 
1.5705711e-04 2.5291444e-02 2.3757926e-04 
1.3876065e-03 2.8515537e-02 4.4838540e-04 
1.7006600e-04 2.4672440e-02 3.3889142e-04 
1.6162106e-04 2.6001183e-02 1.3116142e-04 
1.8044605e-04 2.4861038e-02 3.2618489e-04 
8.9154481e-04 2.5633504e-02 -2.8537029e-04 
3.6583891e-04 2.7857037e-02 8.7799857e-04 
2.4134444e-03 2.6376200e-02 2.2653045e-04 
1.1848051e-03 2.8512827e-02 5.1782079e-04 
2.2044318e-03 2.6365300e-02 1.1885436e-04 
1.9929214e-03 2.6357020e-02 5.4558821e-05 
1.7057337e-04 2.5317163e-02 2.7142778e-04 
1.6991202e-04 2.5996482e-02 1.6473422e-04 
1.7789834e-03 2.6351594e-02 -1.4735264e-05 
9.8270952e-04 2.8513451e-02 5.8732931e-04 
6.6358940e-04 2.5638368e-02 -3.4501875e-04 
1.6411913e-04 2.7778622e-02 4.8445446e-05 
1.5627162e-03 2.6349218e-02 -8.3788034e-05 
1.6740875e-04 2.6803656e-02 -3.4636551e-05 
1.7099179e-04 2.6846940e-02 1.9244849e-05 
1.8799122e-04 2.4629467e-02 3.9708435e-04 
1.7983767e-04 2.6001863e-02 1.9858679e-04 
7.8152682e-04 2.8520686e-02 6.5833015e-04 
1.7520982e-04 2.6791044e-02 3.8802600e-05 
1.3442686e-03 2.6350404e-02 -1.5318750e-04 
1.8532530e-04 2.5351634e-02 3.0661014e-04 
4.3463866e-04 2.5681727e-02 -5.1325269e-04 
1.8034513e-04 2.6757132e-02 6.9690136e-05 
2.1855891e-03 2.9261372e-02 1.4486107e-04 
1.1238644e-03 2.6354661e-02 -2.2271617e-04 
1.9840323e-03 2.9245255e-02 2.5287957e-04 
5.8149753e-04 2.8523390e-02 7.1781844e-04 
1.7829903e-03 2.9231961e-02 3.1735767e-04 
1.9123902e-04 2.6017294e-02 2.3245601e-04 
1.8660815e-04 2.6732048e-02 9.9359622e-05 
1.5825296e-03 2.9221789e-02 3.8680433e-04 
2.0547284e-04 2.5605766e-02 3.1733043e-04 
2.0077222e-04 2.5407989e-02 3.3040478e-04 
9.0182588e-04 2.6365384e-02 -2.9378420e-04 
1.9412653e-04 2.6717205e-02 1.3079016e-04 
1.3827436e-03 2.9214962e-02 4.5595205e-04 
2.4020322e-03 2.7088366e-02 2.1851432e-04 
3.8289283e-04 2.8564075e-02 8.8575125e-04 
2.1955601e-03 2.7078930e-02 1.1072804e-04 
1.9867961e-03 2.7072154e-02 4.6381942e-05 
2.0384187e-04 2.6042917e-02 2.6504618e-04 
1.1837538e-03 2.9211959e-02 5.2538509e-04 
6.7859475e-04 2.6371580e-02 -3.5336157e-04 
1.7758349e-03 2.7068265e-02 -2.2950130e-05 
2.0293652e-04 2.6712433e-02 1.6277158e-04 
1.5628046e-03 2.7067439e-02 -9.2020583e-05 
9.8571010e-04 2.9212206e-02 5.9488761e-04 
2.1625775e-04 2.5364936e-02 3.8832935e-04 
1.8601028e-04 2.8484816e-02 5.6032491e-05 
1.9124139e-04 2.7509737e-02 -2.8080629e-05 
1.9666902e-04 2.7553028e-02 2.4619334e-05 
2.1297712e-04 2.6717739e-02 1.9510869e-04 
2.1725940e-04 2.6077290e-02 2.9923788e-04 
1.3478843e-03 2.7070153e-02 -1.6141693e-04 
4.5474961e-04 2.6415977e-02 -5.2146315e-04 
2.0257287e-04 2.7497108e-02 4.2848838e-05 
7.8879048e-04 2.9218962e-02 6.6587795e-04 
1.1313222e-03 2.7075874e-02 -2.3092196e-04 
2.0917839e-04 2.7463161e-02 7.2300481e-05 
2.2408709e-04 2.6733093e-02 2.2759663e-04 
2.1679948e-03 2.9952867e-02 1.5214084e-04 
2.1664665e-04 2.7438034e-02 1.0046472e-04 
2.3101715e-04 2.6340729e-02 3.0882503e-04 
5.9320001e-04 2.9221061e-02 7.2534823e-04 
1.9691181e-03 2.9936396e-02 2.6020288e-04 
2.3099692e-04 2.6133543e-02 3.2236728e-04 
1.7710409e-03 2.9922747e-02 3.2469549e-04 
9.1345335e-04 2.7087937e-02 -3.0194711e-04 
1.5738201e-03 2.9912205e-02 3.9415206e-04 
2.2506560e-04 2.7423138e-02 1.3036635e-04 
2.3920059e-03 2.7792029e-02 2.1072449e-04 
2.1881187e-03 2.7783947e-02 1.0284259e-04 
1.3775356e-03 2.9904973e-02 4.6330368e-04 
2.3600466e-04 2.6758635e-02 2.5899616e-04 
1.9821365e-03 2.7778565e-02 3.8452998e-05 
3.9916826e-04 2.9261003e-02 8.9326561e-04 
6.9471494e-04 2.7095284e-02 -3.6146885e-04 
1.7741704e-03 2.7776092e-02 -3.0912163e-05 
2.3444302e-04 2.7418309e-02 1.6084403e-04 
1.1822908e-03 2.9901511e-02 5.3273538e-04 
1.5643682e-03 2.7776682e-02 -9.9998934e-05 
2.4445820e-04 2.6090424e-02 3.7998773e-04 
9.8821251e-04 2.9901230e-02 6.0223117e-04 
2.0694558e-04 2.9180830e-02 6.3413672e-05 
4.7565793e-04 2.7140556e-02 -5.2947223e-04 
1.3529278e-03 2.7780779e-02 -1.6939463e-04 
2.4836972e-04 2.6792927e-02 2.9224003e-04 
2.1395500e-04 2.8205685e-02 -2.1768735e-05 
2.4470181e-04 2.7423554e-02 1.9175341e-04 
2.2108534e-04 2.8248988e-02 2.9734635e-05 
2.2856143e-04 2.8193056e-02 4.6649430e-05 
1.1401107e-03 2.7787807e-02 -2.3888232e-04 
7.9545050e-04 2.9907369e-02 6.7320880e-04 
2.3655833e-04 2.8159086e-02 7.4702302e-05 
2.5695300e-04 2.7065872e-02 3.0062949e-04 
2.5567751e-04 2.7438842e-02 2.2294047e-04 
2.6072810e-04 2.6849099e-02 3.1471445e-04 
9.2625478e-04 2.7801047e-02 -3.0987459e-04 
2.4519329e-04 2.8133926e-02 1.0141810e-04 
6.0417617e-04 2.9908745e-02 7.3265822e-04 
2.1499566e-03 3.0635590e-02 1.5919322e-04 
1.9537679e-03 3.0618598e-02 2.6730657e-04 
1.7586476e-03 3.0604428e-02 3.3181786e-04 
2.3832571e-03 2.8487018e-02 2.0315277e-04 
2.1819996e-03 2.8480185e-02 9.5185659e-05 
2.5451864e-04 2.8118990e-02 1.2986170e-04 
1.5646428e-03 3.0593349e-02 4.0128789e-04 
2.6711819e-04 2.7464318e-02 2.5321529e-04 
1.9788289e-03 2.8476088e-02 3.0757502e-05 
7.1178503e-04 2.7809385e-02 -3.6935251e-04 
1.7738663e-03 2.8474916e-02 -3.8637445e-05 
1.3718192e-03 3.0585550e-02 4.7044574e-04 
4.1458022e-04 2.9947850e-02 9.0055419e-04 
2.7253760e-04 2.6805923e-02 3.7200724e-04 
2.6451626e-04 2.8114115e-02 1.5891449e-04 
1.5672714e-03 2.8476797e-02 -1.0773984e-04 
1.1802622e-03 3.0581477e-02 5.3987719e-04 
4.9722035e-04 2.7855390e-02 -5.3728321e-04 
1.3592528e-03 2.8482142e-02 -1.7713700e-04 
2.7868646e-04 2.7498543e-02 2.8555642e-04 
2.2686944e-04 2.9866696e-02 7.0590896e-05 
2.7509378e-04 2.8119309e-02 1.8847649e-04 
9.9007605e-04 3.0580524e-02 6.0936618e-04 
2.3552171e-04 2.8891515e-02 -1.5698679e-05 
2.4423969e-04 2.8934835e-02 3.4592523e-05 
1.1500770e-03 2.8490333e-02 -2.4661230e-04 
2.5319897e-04 2.8878900e-02 5.0202561e-05 
2.8317583e-04 2.7781144e-02 2.9271363e-04 
8.0138309e-04 3.0585917e-02 6.8033010e-04 
2.6252945e-04 2.8844917e-02 7.6888159e-05 
2.8608275e-04 2.8134544e-02 2.1843797e-04 
2.8996364e-04 2.7554650e-02 3.0739307e-04 
9.4007754e-04 2.8504608e-02 -3.1757934e-04 
2.7230895e-04 2.8819733e-02 1.0220513e-04 
6.1432277e-04 3.0586461e-02 7.3975729e-04 
2.1313128e-03 3.1309493e-02 1.6602978e-04 
2.3756839e-03 2.9173156e-02 1.9579121e-04 
1.9378181e-03 3.1291821e-02 2.7419971e-04 
2.1770998e-03 2.9167474e-02 8.7746275e-05 
2.8255754e-04 2.8804767e-02 1.2925372e-04 
7.2966214e-04 2.8513798e-02 -3.7702225e-04 
1.7456475e-03 3.1276970e-02 3.3873271e-04 
1.9767652e-03 2.9164559e-02 2.3282981e-05 
2.9723881e-04 2.8159964e-02 2.4765191e-04 
1.5548376e-03 3.1265197e-02 4.0821885e-04 
1.7748065e-03 2.9164581e-02 -4.6139553e-05 
3.0045558e-04 2.7511425e-02 3.6434511e-04 
4.2904931e-04 3.0624638e-02 9.0762865e-04 
1.3654406e-03 3.1256678e-02 4.7738485e-04 
2.9323321e-04 2.8799855e-02 1.5695283e-04 
1.5713898e-03 2.9167639e-02 -1.1525729e-04 
5.1931589e-04 2.8560416e-02 -5.4489905e-04 
1.1775236e-03 3.1251847e-02 5.4681717e-04 
1.3667278e-03 2.9174110e-02 -1.8465770e-04 
3.0824377e-04 2.8194135e-02 2.7913683e-04 
3.0422896e-04 2.8805008e-02 1.8524119e-04 
2.4572901e-04 3.0542442e-02 7.7568091e-05 
2.5591389e-04 2.9567243e-02 -9.8665886e-06 
9.9116873e-04 3.1250089e-02 6.1629975e-04 
2.6612878e-04 2.9610583e-02 3.9196031e-05 
1.1610860e-03 2.9183340e-02 -2.5412445e-04 
3.0960067e-04 2.8486506e-02 2.8505386e-04 
2.7650452e-04 2.9554651e-02 5.3507888e-05 
2.8713008e-04 2.9520661e-02 7.8852655e-05 
3.1870964e-04 2.8250190e-02 3.0035848e-04 
3.1537163e-04 2.8820199e-02 2.1404767e-04 
8.0647211e-04 3.1254616e-02 6.8724975e-04 
9.5478930e-04 2.9198524e-02 -3.2507198e-04 
2.9804735e-04 2.9495462e-02 1.0281409e-04 
2.3691933e-03 2.9850260e-02 1.8863209e-04 
6.2354266e-04 3.1254224e-02 7.4665432e-04 
2.1733251e-03 2.9845640e-02 8.0514539e-05 
7.4822505e-04 2.9208449e-02 -3.8448640e-04 
3.2642232e-04 2.8845575e-02 2.4226243e-04 
1.9758466e-03 2.9843819e-02 1.6018464e-05 
3.0924678e-04 2.9480474e-02 1.2852379e-04 
2.1119096e-03 3.1974538e-02 1.7266175e-04 
1.9211129e-03 3.1956034e-02 2.8089165e-04 
1.7768862e-03 2.9844938e-02 -5.3430217e-05 
1.7318851e-03 3.1940349e-02 3.4544847e-04 
3.2818451e-04 2.8206921e-02 3.5696577e-04 
1.5442527e-03 3.1927731e-02 4.1495272e-04 
1.5766122e-03 2.9849070e-02 -1.2256326e-04 
4.4250022e-04 3.1291389e-02 9.1449985e-04 
3.2066402e-04 2.9475534e-02 1.5493365e-04 
5.4184463e-04 2.9255581e-02 -5.5232289e-04 
1.3582538e-03 3.1918347e-02 4.8412841e-04 
1.3752370e-03 2.9856562e-02 -1.9196839e-04 
3.3707872e-04 2.8879701e-02 2.7293854e-04 
1.1739378e-03 3.1912621e-02 5.5356268e-04 
3.3217785e-04 2.9480654e-02 1.8201624e-04 
2.6347315e-04 3.1208088e-02 8.4350592e-05 
1.1730213e-03 2.9866724e-02 -2.6142950e-04 
3.3616041e-04 2.9181925e-02 2.7763126e-04 
2.7510364e-04 3.0232880e-02 -4.2675846e-06 
2.8674698e-04 3.0276244e-02 4.3548749e-05 
9.9136543e-04 3.1909928e-02 6.2303949e-04 
2.9849299e-04 3.0220320e-02 5.6565698e-05 
3.4697908e-04 2.8935712e-02 2.9357252e-04 
9.7027804e-04 2.9882711e-02 -3.3236178e-04 
3.4360954e-04 2.9495810e-02 2.0973398e-04 
3.1039302e-04 3.0186329e-02 8.0591399e-05 
8.1060731e-04 3.1913474e-02 6.9397592e-04 
3.2245583e-04 3.0161121e-02 1.0323488e-04 
7.6737340e-04 2.9893275e-02 -3.9175243e-04 
2.3637040e-03 3.0518150e-02 1.8166792e-04 
2.1705921e-03 3.0514517e-02 7.3481345e-05 
1.9759859e-03 3.0513708e-02 8.9540870e-06 
3.5472372e-04 2.9521148e-02 2.3700913e-04 
6.3174323e-04 3.1912045e-02 7.5335816e-04 
3.3464427e-04 3.0146117e-02 1.2765563e-04 
3.5570801e-04 2.8892406e-02 3.4983901e-04 
1.7800136e-03 3.0515843e-02 -6.0519822e-05 
2.0915994e-03 3.2630698e-02 1.7909992e-04 
1.9035028e-03 3.2611216e-02 2.8739177e-04 
1.7172116e-03 3.2594550e-02 3.5197386e-04 
1.5828425e-03 3.0520964e-02 -1.2966827e-04 
5.6472631e-04 2.9940841e-02 -5.5955833e-04 
3.4687275e-04 3.0141155e-02 1.5283465e-04 
1.5327421e-03 3.2580943e-02 4.2149764e-04 
4.5486045e-04 3.1948117e-02 9.2117789e-04 
3.6523076e-04 2.9555237e-02 2.6692439e-04 
1.3846818e-03 3.0529387e-02 -1.9907928e-04 
1.3501187e-03 3.2570552e-02 4.9068426e-04 
3.6280417e-04 2.9867377e-02 2.7043030e-04 
3.5900597e-04 3.0146250e-02 1.7877408e-04 
1.1693736e-03 3.2563797e-02 5.6012148e-04 
1.1857851e-03 3.0540391e-02 -2.6853696e-04 
2.8005158e-04 3.1863652e-02 9.0944692e-05 
2.9306218e-04 3.0888438e-02 1.1037133e-06 
3.0608616e-04 3.0931828e-02 4.7654314e-05 
9.9054619e-04 3.2560046e-02 6.2959332e-04 
3.7479086e-04 2.9611214e-02 2.8700192e-04 
3.1917531e-04 3.0875916e-02 5.9376282e-05 
9.8645162e-04 3.0557097e-02 -3.3945712e-04 
3.7085872e-04 3.0161377e-02 2.0546544e-04 
3.3234598e-04 3.0841928e-02 8.2100225e-05 
8.1368269e-04 3.2562499e-02 7.0051685e-04 
7.8702667e-04 3.0568221e-02 -3.9882737e-04 
3.4557597e-04 3.0816716e-02 1.0345807e-04 
2.3591476e-03 3.1176647e-02 1.7489132e-04 
2.1688305e-03 3.1173939e-02 6.6638169e-05 
1.9771097e-03 3.1174079e-02 2.0807950e-06 
3.8219713e-04 3.0186685e-02 2.3185854e-04 
3.8301969e-04 2.9567873e-02 3.4293868e-04 
6.3883496e-04 3.2559938e-02 7.5987746e-04 
1.7841116e-03 3.1177161e-02 -6.7417776e-05 
3.5880201e-04 3.0801701e-02 1.2663422e-04 
5.8789896e-04 3.0616159e-02 -5.6660952e-04 
1.5900008e-03 3.1183199e-02 -1.3658179e-04 
2.0702396e-03 3.3277956e-02 1.8535462e-04 
1.8848430e-03 3.3257355e-02 2.9370935e-04 
1.7014827e-03 3.3239566e-02 3.5831762e-04 
3.7191801e-04 3.0796724e-02 1.5063537e-04 
3.9274125e-04 3.0220743e-02 2.6106133e-04 
4.6605916e-04 3.2594837e-02 9.2767227e-04 
1.3949814e-03 3.1192482e-02 -2.0599962e-04 
1.5201648e-03 3.3224827e-02 4.2786194e-04 
3.8949584e-04 3.0542842e-02 2.6343781e-04 
1.3409002e-03 3.3213294e-02 4.9706047e-04 
1.1992983e-03 3.1204256e-02 -2.7545551e-04 
3.8477441e-04 3.0801799e-02 1.7548953e-04 
1.1637038e-03 3.3205380e-02 5.6650154e-04 
2.9541403e-04 3.2509146e-02 9.7357298e-05 
3.0975932e-04 3.1533929e-02 6.2528116e-06 
4.0216911e-04 3.0276690e-02 2.8061704e-04 
3.2413544e-04 3.1577345e-02 5.1516027e-05 
1.0032372e-03 3.1221614e-02 -3.4636580e-04 
3.3855847e-04 3.1521447e-02 6.1939478e-05 
9.8859460e-04 3.3200450e-02 6.3596925e-04 
3.9717848e-04 3.0816903e-02 2.0121336e-04 
3.5301187e-04 3.1487466e-02 8.3374635e-05 
8.0712311e-04 3.1233240e-02 -4.0571802e-04 
8.1559509e-04 3.3201702e-02 7.0688074e-04 
2.3554700e-03 3.1825581e-02 1.6829501e-04 
3.6744406e-04 3.1462254e-02 1.0347422e-04 
2.1679839e-03 3.1823749e-02 5.9976911e-05 
4.0889586e-04 3.0842185e-02 2.2678022e-04 
1.9791589e-03 3.1824788e-02 -4.6098842e-06 
4.1012225e-04 3.0233317e-02 3.3624169e-04 
1.7891185e-03 3.1828765e-02 -7.4132786e-05 
3.8176668e-04 3.1447233e-02 1.2544498e-04 
6.4473014e-04 3.3197914e-02 7.6622067e-04 
6.1131752e-04 3.1281505e-02 -5.7348116e-04 
1.5980236e-03 3.1835666e-02 -1.4331255e-04 
2.0476907e-03 3.3916310e-02 1.9143566e-04 
3.9585350e-04 3.1442244e-02 1.4831632e-04 
1.8649922e-03 3.3894449e-02 2.9985346e-04 
1.4060722e-03 3.1845753e-02 -2.1273792e-04 
4.1965330e-04 3.0876217e-02 2.5531935e-04 
1.6845575e-03 3.3875397e-02 3.6448843e-04 
4.7602612e-04 3.3231561e-02 9.3399191e-04 
4.1621280e-04 3.1208307e-02 2.5664232e-04 
1.5063829e-03 3.3859389e-02 4.3405396e-04 
1.2135004e-03 3.1858245e-02 -2.8219324e-04 
4.0954030e-04 3.1447304e-02 1.7213883e-04 
1.3304655e-03 3.3846578e-02 5.0326513e-04 
3.0950944e-04 3.3144583e-02 1.0359569e-04 
1.1568037e-03 3.3837378e-02 5.7271085e-04 
4.2914275e-04 3.0932139e-02 2.7439101e-04 
3.2516292e-04 3.2169359e-02 1.1185066e-05 
1.0205803e-03 3.1876205e-02 -3.5309528e-04 
3.4088085e-04 3.2212804e-02 5.5136577e-05 
4.2262562e-04 3.1462388e-02 1.9695088e-04 
3.5664550e-04 3.2156921e-02 6.4254338e-05 
9.8539642e-04 3.3831150e-02 6.4217527e-04 
8.2761854e-04 3.1888292e-02 -4.1243115e-04 
3.7240896e-04 3.2122950e-02 8.4409375e-05 
2.3526320e-03 3.2464786e-02 1.6187177e-04 
2.1680110e-03 3.2463797e-02 5.3489770e-05 
8.1624280e-04 3.3831093e-02 7.1307566e-04 
4.3702668e-04 3.0888735e-02 3.2972723e-04 
3.8809142e-04 3.2097740e-02 1.0327336e-04 
1.9820898e-03 3.2465700e-02 -1.1126007e-05 
4.3487256e-04 3.1487650e-02 2.2174579e-04 
1.7949888e-03 3.2470534e-02 -8.0673062e-05 
6.3495259e-04 3.1936855e-02 -5.8017855e-04 
4.0358004e-04 3.2082716e-02 1.2407312e-04 
1.6068644e-03 3.2478261e-02 -1.4986877e-04 
6.4934169e-04 3.3825983e-02 7.7239597e-04 
1.4179086e-03 3.2489115e-02 -2.1930224e-04 
4.4601171e-04 3.1521659e-02 2.4967058e-04 
4.1872848e-04 3.2077720e-02 1.4585820e-04 
4.4294480e-04 3.1863760e-02 2.5003355e-04 
2.0238153e-03 3.4545765e-02 1.9735237e-04 
1.8438108e-03 3.4522507e-02 3.0583291e-04 
4.8469072e-04 3.3858299e-02 9.4014526e-04 
1.6662969e-03 3.4502052e-02 3.7049480e-04 
1.2283484e-03 3.2502287e-02 -2.8875789e-04 
1.4912599e-03 3.4484637e-02 4.4008193e-04 
4.3335721e-04 3.2082767e-02 1.6869890e-04 
1.3186838e-03 3.4470416e-02 5.0930631e-04 
4.5574516e-04 3.1577560e-02 2.6829899e-04 
1.0384439e-03 3.2520819e-02 -3.5965285e-04 
3.2228521e-04 3.3769972e-02 1.0966734e-04 
3.3923834e-04 3.2794739e-02 1.5905481e-05 
1.1485501e-03 3.4459802e-02 5.7875736e-04 
3.5630509e-04 3.2838212e-02 5.8517840e-05 
4.4725470e-04 3.2097837e-02 1.9265222e-04 
3.7343537e-04 3.2782346e-02 6.6318885e-05 
8.4848527e-04 3.2533342e-02 -4.1897352e-04 
9.8083815e-04 3.4452158e-02 6.4821929e-04 
3.9055100e-04 3.2748385e-02 8.5198141e-05 
2.3506092e-03 3.3094102e-02 1.5561438e-04 
4.6375167e-04 3.1534126e-02 3.2337624e-04 
2.1688855e-03 3.3093939e-02 4.7169153e-05 
1.9858745e-03 3.3096686e-02 -1.7475336e-05 
4.6017944e-04 3.2123081e-02 2.1672827e-04 
4.0754467e-04 3.2723181e-02 1.0284461e-04 
8.1552432e-04 3.4450683e-02 7.1910952e-04 
6.5878922e-04 3.2582190e-02 -5.8670740e-04 
1.8016930e-03 3.3102357e-02 -8.7046465e-05 
4.2427932e-04 3.2708156e-02 1.2250327e-04 
1.6164933e-03 3.3110888e-02 -1.5625830e-04 
6.5258204e-04 3.4444156e-02 7.7841133e-04 
1.4304617e-03 3.3122487e-02 -2.2570031e-04 
4.7186299e-04 3.2157071e-02 2.4408871e-04 
4.6969302e-04 3.2509196e-02 2.4360206e-04 
4.4058819e-04 3.2703155e-02 1.4324150e-04 
1.9984763e-03 3.5166341e-02 2.0311363e-04 
1.2438168e-03 3.3136322e-02 -2.9515696e-04 
1.8211596e-03 3.5141546e-02 3.1165620e-04 
4.9198103e-04 3.4475061e-02 9.4614033e-04 
1.6465620e-03 3.5119550e-02 3.7634500e-04 
4.5627561e-04 3.2708193e-02 1.6514680e-04 
1.4746600e-03 3.5100590e-02 4.4595394e-04 
4.8201401e-04 3.2212951e-02 2.6231767e-04 
1.0568078e-03 3.3155410e-02 -3.6604567e-04 
1.3054241e-03 3.5084824e-02 5.1519193e-04 
3.3368650e-04 3.4385320e-02 1.1557977e-04 
3.5194789e-04 3.3410073e-02 2.0418558e-05 
1.1388194e-03 3.5072668e-02 5.8464888e-04 
4.7111846e-04 3.2723251e-02 1.8829209e-04 
3.7038716e-04 3.3453575e-02 6.1660728e-05 
8.6971107e-04 3.3168361e-02 -4.2535196e-04 
3.8892284e-04 3.3397727e-02 6.8129931e-05 
9.7480574e-04 3.5063488e-02 6.5410906e-04 
4.0744726e-04 3.3363778e-02 8.5733346e-05 
4.9032318e-04 3.2169488e-02 3.1717094e-04 
2.3493925e-03 3.3713376e-02 1.4951565e-04 
2.1705967e-03 3.3714037e-02 4.1007616e-05 
1.9905005e-03 3.3717625e-02 -2.3665426e-05 
4.8486851e-04 3.2748479e-02 2.1170148e-04 
6.8282596e-04 3.3217493e-02 -5.9307385e-04 
4.2582593e-04 3.3338581e-02 1.0217591e-04 
8.1333715e-04 3.5060487e-02 7.2499004e-04 
1.8092180e-03 3.3724128e-02 -9.3260609e-05 
1.6268972e-03 3.3733458e-02 -1.6248873e-04 
4.4389749e-04 3.3323558e-02 1.2071906e-04 
6.5436207e-04 3.5052446e-02 7.8427442e-04 
4.9646927e-04 3.3144610e-02 2.3733905e-04 
1.4437193e-03 3.3745797e-02 -2.3193963e-04 
4.9725550e-04 3.2782452e-02 2.3854849e-04 
4.6147421e-04 3.3318554e-02 1.4044604e-04 
1.2598960e-03 3.3760292e-02 -3.0139778e-04 
4.9782289e-04 3.5081856e-02 9.5198481e-04 
1.9715357e-03 3.5778068e-02 2.0872786e-04 
1.7968984e-03 3.5751596e-02 3.1733153e-04 
4.7834320e-04 3.3323585e-02 1.6145930e-04 
1.6252130e-03 3.5727916e-02 3.8204709e-04 
5.0799119e-04 3.2838314e-02 2.5642484e-04 
1.0756674e-03 3.3779937e-02 -3.7228087e-04 
1.4564457e-03 3.5707272e-02 4.5167787e-04 
1.2905540e-03 3.5689825e-02 5.2092974e-04 
3.4365549e-04 3.4990633e-02 1.2134048e-04 
3.6325032e-04 3.4015370e-02 2.4728191e-05 
4.9426815e-04 3.3338632e-02 1.8384531e-04 
3.8310197e-04 3.4058901e-02 6.4565079e-05 
8.9129819e-04 3.3793321e-02 -4.3157336e-04 
1.1274864e-03 3.5675997e-02 5.9039305e-04 
4.0309832e-04 3.4003070e-02 6.9682945e-05 
5.1677412e-04 3.2794822e-02 3.1109455e-04 
4.2310253e-04 3.3969135e-02 8.6005957e-05 
2.3489880e-03 3.4322461e-02 1.4356839e-04 
9.6718328e-04 3.5665159e-02 6.5985213e-04 
2.1731492e-03 3.4323960e-02 3.4997821e-05 
7.0707395e-04 3.3842751e-02 -5.9928432e-04 
1.9959715e-03 3.4328400e-02 -2.9703683e-05 
5.0899188e-04 3.3363848e-02 2.0663971e-04 
4.4295295e-04 3.3943945e-02 1.0125379e-04 
1.8175664e-03 3.4335746e-02 -9.9322934e-05 
8.0957659e-04 3.5660520e-02 7.3072473e-04 
1.6380789e-03 3.4345885e-02 -1.6856749e-04 
4.6246354e-04 3.3928926e-02 1.1870292e-04 
5.2329529e-04 3.3770001e-02 2.3123617e-04 
1.4576856e-03 3.4358977e-02 -2.3802755e-04 
5.2223959e-04 3.3397804e-02 2.3302532e-04 
6.5459003e-04 3.5650865e-02 7.8999270e-04 
4.8142481e-04 3.3923920e-02 1.3745069e-04 
1.2765928e-03 3.4374144e-02 -3.0748761e-04 
5.0213906e-04 3.5678695e-02 9.5768606e-04 
1.9428528e-03 3.6380987e-02 2.1420312e-04 
4.9960533e-04 3.3928947e-02 1.5761257e-04 
5.3372281e-04 3.3453650e-02 2.5059907e-04 
1.7708844e-03 3.6352695e-02 3.2286678e-04 
1.0950331e-03 3.4394362e-02 -3.7836553e-04 
1.6021072e-03 3.6327188e-02 3.8760882e-04 
1.4364772e-03 3.6304715e-02 4.5726138e-04 
1.2739384e-03 3.6285448e-02 5.2652729e-04 
9.1326262e-04 3.4408199e-02 -4.3764468e-04 
5.1675386e-04 3.3943985e-02 1.7928645e-04 
3.5213069e-04 3.5585918e-02 1.2695689e-04 
3.7310025e-04 3.4610634e-02 2.8837583e-05 
3.9442004e-04 3.4654194e-02 6.7229573e-05 
1.1144230e-03 3.6269814e-02 5.9599734e-04 
5.4314408e-04 3.3410130e-02 3.0513101e-04 
4.1594763e-04 3.4598382e-02 7.0971938e-05 
2.3494171e-03 3.4921216e-02 1.3776541e-04 
2.1765631e-03 3.4923580e-02 2.9132511e-05 
4.3751705e-04 3.4564460e-02 8.6005348e-05 
7.3155615e-04 3.4457953e-02 -6.0534547e-04 
5.3260206e-04 3.3969189e-02 2.0151726e-04 
2.0023066e-03 3.4928900e-02 -3.5597402e-05 
9.5785180e-04 3.6257193e-02 6.6545589e-04 
1.8267571e-03 3.4937116e-02 -1.0524075e-04 
4.5893920e-04 3.4539279e-02 1.0006323e-04 
1.6500572e-03 3.4948090e-02 -1.7450187e-04 
8.0413463e-04 3.6250800e-02 7.3632087e-04 
4.8000269e-04 3.4524264e-02 1.1643583e-04 
5.5020229e-04 3.4385367e-02 2.2528539e-04 
1.4723804e-03 3.4961961e-02 -2.4397133e-04 
5.4686783e-04 3.4003131e-02 2.2749495e-04 
6.5317058e-04 3.6239427e-02 7.9557339e-04 
5.0047518e-04 3.4519258e-02 1.3423312e-04 
1.2939287e-03 3.4977829e-02 -3.1343360e-04 
5.5925927e-04 3.4058960e-02 2.4481942e-04 
1.1149298e-03 3.4998650e-02 -3.8430674e-04 
5.2010529e-04 3.4524281e-02 1.5358187e-04 
5.0484831e-04 3.6265586e-02 9.6325116e-04 
1.9122834e-03 3.6975152e-02 2.1954708e-04 
1.7429711e-03 3.6944892e-02 3.2826955e-04 
1.5770981e-03 3.6917407e-02 3.9303773e-04 
1.4146104e-03 3.6892959e-02 4.6271190e-04 
9.3563336e-04 3.5012974e-02 -4.4357292e-04 
5.3862494e-04 3.4539312e-02 1.7458951e-04 
3.5904624e-04 3.6171178e-02 1.3243626e-04 
3.8144761e-04 3.5195871e-02 3.2749189e-05 
1.2554381e-03 3.6871727e-02 5.3199192e-04 
4.0430703e-04 3.5239460e-02 6.9651655e-05 
5.6947926e-04 3.4015412e-02 2.9926479e-04 
4.2745178e-04 3.5183666e-02 7.1989376e-05 
1.0994969e-03 3.6854149e-02 6.0146900e-04 
2.3507159e-03 3.5509502e-02 1.3209956e-04 
7.5630681e-04 3.5063090e-02 -6.1126412e-04 
2.1808738e-03 3.5512774e-02 2.3404496e-05 
4.5068647e-04 3.5149758e-02 8.5719183e-05 
2.0095404e-03 3.5519016e-02 -4.1353792e-05 
5.5575229e-04 3.4564505e-02 1.9630827e-04 
9.4668798e-04 3.6839614e-02 6.7092750e-04 
1.8368243e-03 3.5528144e-02 -1.1102127e-04 
4.7379396e-04 3.5124586e-02 9.8587448e-05 
1.6628665e-03 3.5539997e-02 -1.8029908e-04 
5.7723051e-04 3.4990709e-02 2.1947898e-04 
7.9689878e-04 3.6831347e-02 7.4178554e-04 
4.9653655e-04 3.5109576e-02 1.1389716e-04 
1.4878386e-03 3.5554689e-02 -2.4977813e-04 
5.7119523e-04 3.4598433e-02 2.2193322e-04 
5.1865780e-04 3.5104572e-02 1.3076961e-04 
1.3119402e-03 3.5571301e-02 -3.1924288e-04 
6.5000371e-04 3.6818147e-02 8.0102348e-04 
5.8465534e-04 3.4654247e-02 2.3906524e-04 
1.1353961e-03 3.5592769e-02 -3.9011155e-04 
5.3988467e-04 3.5109592e-02 1.4934135e-04 
5.0586457e-04 3.6842538e-02 9.6868697e-04 
1.8796776e-03 3.7560630e-02 2.2476710e-04 
1.7130063e-03 3.7528247e-02 3.3354716e-04 
1.5500339e-03 3.7498630e-02 3.9834107e-04 
9.5845192e-04 3.5607627e-02 -4.4936507e-04 
1.3906957e-03 3.7472051e-02 4.6803663e-04 
5.5993024e-04 3.5124616e-02 1.6972768e-04 
3.6433117e-04 3.6746419e-02 1.3778572e-04 
5.9583234e-04 3.4610671e-02 2.9348069e-04 
3.8823711e-04 3.5771085e-02 3.6464665e-05 
1.2349084e-03 3.7448703e-02 5.3733077e-04 
4.1272341e-04 3.5814704e-02 7.1827472e-05 
4.3758674e-04 3.5758927e-02 7.2726086e-05 
7.8137100e-04 3.5658152e-02 -6.1704718e-04 
2.3529358e-03 3.6087182e-02 1.2656372e-04 
2.1861319e-03 3.6091421e-02 1.7806649e-05 
1.0825704e-03 3.7429037e-02 6.0681507e-04 
2.0177232e-03 3.6098644e-02 -4.6979985e-05 
5.7849682e-04 3.5149799e-02 1.9098639e-04 
4.6260175e-04 3.5725034e-02 8.5133300e-05 
1.8478178e-03 3.6108742e-02 -1.1667163e-04 
9.3356292e-04 3.7412451e-02 6.7627393e-04 
4.8752232e-04 3.5699872e-02 9.6807808e-05 
1.6765564e-03 3.6121530e-02 -1.8596623e-04 
6.0442900e-04 3.5586029e-02 2.1380940e-04 
5.1208329e-04 3.5684867e-02 1.1106448e-04 
7.8775093e-04 3.7402183e-02 7.4712565e-04 
1.5041103e-03 3.6137101e-02 -2.5545506e-04 
5.9527954e-04 3.5183714e-02 2.1631579e-04 
1.3306782e-03 3.6154514e-02 -3.2492251e-04 
5.3600256e-04 3.5679865e-02 1.2703481e-04 
6.4498373e-04 3.7387041e-02 8.0634976e-04 
6.0997038e-04 3.5239513e-02 2.3331594e-04 
1.1564838e-03 3.6176688e-02 -3.9578700e-04 
5.5898363e-04 3.5684883e-02 1.4486380e-04 
5.0509602e-04 3.7409563e-02 9.7400012e-04 
9.8177189e-04 3.6192138e-02 -4.5502817e-04 
1.8448790e-03 3.8137498e-02 2.2987024e-04 
1.6808310e-03 3.8102831e-02 3.3870665e-04 
1.5207554e-03 3.8070917e-02 4.0352586e-04 
5.8071855e-04 3.5699901e-02 1.6467316e-04 
6.2226258e-04 3.5195909e-02 2.8776376e-04 
1.3645769e-03 3.8042047e-02 4.7324253e-04 
3.6790867e-04 3.7311645e-02 1.4301221e-04 
3.9340765e-04 3.6336282e-02 3.9984826e-05 
4.1962398e-04 3.6379929e-02 7.3751812e-05 
1.2121975e-03 3.8016426e-02 5.4255074e-04 
8.0680428e-04 3.6243134e-02 -6.2270163e-04 
2.3561430e-03 3.6654124e-02 1.2115079e-04 
4.4632317e-04 3.6324170e-02 7.3171167e-05 
2.1924034e-03 3.6659403e-02 1.2331903e-05 
2.0269204e-03 3.6667680e-02 -5.2483045e-05 
6.0089129e-04 3.5725075e-02 1.8552457e-04 
1.0634986e-03 3.7994518e-02 6.1204241e-04 
4.7324899e-04 3.6290292e-02 8.4231594e-05 
1.8598028e-03 3.6678821e-02 -1.2219889e-04 
6.3185540e-04 3.6171330e-02 2.0826928e-04 
9.1834085e-04 3.7975737e-02 6.8150196e-04 
1.6911920e-03 3.6692616e-02 -1.9151037e-04 
5.0012523e-04 3.6265140e-02 9.4703650e-05 
6.1918149e-04 3.5758977e-02 2.1061796e-04 
1.5212602e-03 3.6709139e-02 -2.6100914e-04 
5.2665776e-04 3.6250141e-02 1.0791339e-04 
7.7656616e-04 3.7963333e-02 7.5234786e-04 
1.3502073e-03 3.6727425e-02 -3.3047954e-04 
5.5253708e-04 3.6245141e-02 1.2300156e-04 
6.3799826e-04 3.7946127e-02 8.1155885e-04 
6.3526852e-04 3.5814762e-02 2.2755086e-04 
1.1782581e-03 3.6750377e-02 -4.0134011e-04 
5.7744120e-04 3.6250157e-02 1.4012046e-04 
5.0244417e-04 3.7966670e-02 9.7919706e-04 
1.0056587e-03 3.6766491e-02 -4.6056923e-04 
1.8077226e-03 3.8705848e-02 2.3486331e-04 
6.0103883e-04 3.6265170e-02 1.5939684e-04 
1.6462779e-03 3.8668725e-02 3.4375487e-04 
6.4883589e-04 3.5771130e-02 2.8209913e-04 
1.4890955e-03 3.8634344e-02 4.0859891e-04 
3.6969535e-04 3.7866858e-02 1.4812250e-04 
1.3360888e-03 3.8603011e-02 4.7833640e-04 
3.9689165e-04 3.6891465e-02 4.3309613e-05 
8.3267257e-04 3.6818028e-02 -6.2823447e-04 
4.2495742e-04 3.6935141e-02 7.5418038e-05 
2.3604187e-03 3.7210192e-02 1.1585377e-04 
1.1871454e-03 3.8574948e-02 5.4765855e-04 
2.1997694e-03 3.7216602e-02 6.9732603e-06 
4.5362607e-04 3.6879400e-02 7.3311900e-05 
2.0372131e-03 3.7226021e-02 -5.7869970e-05 
6.2299305e-04 3.6290336e-02 1.7989484e-04 
1.8728599e-03 3.7238293e-02 -1.2761003e-04 
4.8260933e-04 3.6845535e-02 8.2995894e-05 
1.0421285e-03 3.8550638e-02 6.1715767e-04 
6.5957592e-04 3.6746613e-02 2.0285142e-04 
1.7068533e-03 3.7253185e-02 -1.9693851e-04 
5.1159942e-04 3.6820394e-02 9.2252146e-05 
9.0087788e-04 3.8529509e-02 6.8661818e-04 
1.5393678e-03 3.7270745e-02 -2.6644737e-04 
6.4296517e-04 3.6324226e-02 2.0481444e-04 
5.4027156e-04 3.6805402e-02 1.0441735e-04 
7.6321158e-04 3.8514827e-02 7.5745870e-04 
1.3706063e-03 3.7289992e-02 -3.3592092e-04 
5.6828686e-04 3.6800404e-02 1.1864070e-04 
6.2892707e-04 3.8495425e-02 8.1665716e-04 
6.6061894e-04 3.6379996e-02 2.2174905e-04 
1.2007970e-03 3.7313806e-02 -4.0677786e-04 
5.9529557e-04 3.6805419e-02 1.3508077e-04 
1.0301897e-03 3.7330667e-02 -4.6599521e-04 
4.9780292e-04 3.8513872e-02 9.8428407e-04 
6.7562498e-04 3.6336336e-02 2.7647191e-04 
6.2094062e-04 3.6820427e-02 1.5386816e-04 
1.7680340e-03 3.9265784e-02 2.3975287e-04 
1.6091698e-03 3.9226025e-02 3.4869839e-04 
8.5905203e-04 3.7382828e-02 -6.3365268e-04 
1.4548768e-03 3.9188993e-02 4.1356681e-04 
3.6960039e-04 3.8412063e-02 1.5312320e-04 
3.9861450e-04 3.7436639e-02 4.6438053e-05 
1.3050568e-03 3.9155015e-02 4.8332478e-04 
4.2866582e-04 3.7480343e-02 7.6818017e-05 
2.3658592e-03 3.7755254e-02 1.1066571e-04 
2.2083265e-03 3.7762897e-02 1.7237889e-06 
2.0486976e-03 3.7773564e-02 -6.3147686e-05 
6.4486150e-04 3.6845584e-02 1.7406811e-04 
4.5945448e-04 3.7424620e-02 7.3133644e-05 
1.1595822e-03 3.9124333e-02 5.5266074e-04 
1.8870850e-03 3.7787071e-02 -1.3291199e-04 
6.8766539e-04 3.7311883e-02 1.9754872e-04 
4.9065871e-04 3.7390770e-02 8.1405832e-05 
1.0182974e-03 3.9097449e-02 6.2216734e-04 
1.7236354e-03 3.7803162e-02 -2.0225755e-04 
5.2193741e-04 3.7365638e-02 8.9428136e-05 
8.8102061e-04 3.9073808e-02 6.9162900e-04 
6.6669833e-04 3.6879462e-02 1.9887917e-04 
1.5585272e-03 3.7821863e-02 -2.7177667e-04 
5.5293315e-04 3.7350653e-02 1.0054748e-04 
1.3919680e-03 3.7842169e-02 -3.4125360e-04 
7.4754506e-04 3.9056694e-02 7.6246450e-04 
5.8327543e-04 3.7345658e-02 1.1392085e-04 
6.8609619e-04 3.6935218e-02 2.1588913e-04 
1.2241915e-03 3.7866944e-02 -4.1210717e-04 
6.1764102e-04 3.9034956e-02 8.2165094e-04 
6.1258432e-04 3.7350672e-02 1.2971220e-04 
1.0554536e-03 3.7884649e-02 -4.7131308e-04 
4.9105760e-04 3.9051181e-02 9.8926724e-04 
7.0270966e-04 3.6891530e-02 2.7086711e-04 
6.4047432e-04 3.7365676e-02 1.4805487e-04 
8.8602920e-04 3.7937528e-02 -6.3896325e-04 
1.7256273e-03 3.9817427e-02 2.4454529e-04 
1.5693179e-03 3.9774836e-02 3.5354364e-04 
1.4179106e-03 3.9734958e-02 4.1843598e-04 
3.6752479e-04 3.8947264e-02 1.5802072e-04 
3.9849381e-04 3.7971807e-02 4.9368220e-05 
2.3725763e-03 3.8289172e-02 1.0557972e-04 
2.2181871e-03 3.8298168e-02 -3.4233664e-06 
4.3068414e-04 3.8015539e-02 7.7942043e-05 
1.2712946e-03 3.9698141e-02 4.8821407e-04 
2.0614863e-03 3.8310202e-02 -6.8323046e-05 
6.6655847e-04 3.7390824e-02 1.6801393e-04 
4.6376113e-04 3.7959833e-02 7.2619720e-05 
1.1293266e-03 3.9664650e-02 5.5756367e-04 
7.1620743e-04 3.7867143e-02 1.9235424e-04 
1.9025899e-03 3.8325065e-02 -1.3811162e-04 
4.9736768e-04 3.7925998e-02 7.9438694e-05 
1.7416488e-03 3.8342474e-02 -2.0747436e-04 
9.9183151e-04 3.9635008e-02 6.2707772e-04 
5.3112738e-04 3.7900877e-02 8.6203957e-05 
6.9045274e-04 3.7424691e-02 1.9278514e-04 
1.5788472e-03 3.8362433e-02 -2.7700391e-04 
8.5860478e-04 3.9608680e-02 6.9654067e-04 
5.6464787e-04 3.7885898e-02 9.6272392e-05 
1.4143990e-03 3.8383914e-02 -3.4648444e-04 
7.2941395e-04 3.9588970e-02 7.6737144e-04 
5.9752458e-04 3.7880906e-02 1.0880822e-04 
7.1178049e-04 3.7480433e-02 2.0994915e-04 
1.2485456e-03 3.8409763e-02 -4.1733494e-04 
6.0400086e-04 3.9564743e-02 8.2654630e-04 
6.2934471e-04 3.7885919e-02 1.2397999e-04 
1.0815515e-03 3.8428421e-02 -4.7652973e-04 
4.8208389e-04 3.9578609e-02 9.9415253e-04 
7.3017710e-04 3.7436717e-02 2.6526952e-04 
6.5969150e-04 3.7900918e-02 1.4192277e-04 
9.1370115e-04 3.8482121e-02 -6.4417310e-04 
1.6803035e-03 4.0360908e-02 2.4924675e-04 
1.5265205e-03 4.0315278e-02 3.5829685e-04 
3.6336040e-04 3.9472462e-02 1.6282133e-04 
3.9643871e-04 3.8496973e-02 5.2097194e-05 
2.3806974e-03 3.8811805e-02 1.0058904e-04 
1.3779947e-03 4.0272345e-02 4.2321264e-04 
2.2294793e-03 3.8822291e-02 -8.4749806e-06 
4.3093967e-04 3.8540734e-02 7.8778751e-05 
2.0757075e-03 3.8835829e-02 -7.3402828e-05 
6.8814858e-04 3.7926059e-02 1.6170028e-04 
1.2346028e-03 4.0232481e-02 4.9301051e-04 
7.4529465e-04 3.8412395e-02 1.8726112e-04 
4.6649197e-04 3.8485045e-02 7.1751289e-05 
1.9195020e-03 3.8852183e-02 -1.4321570e-04 
1.0961843e-03 4.0195977e-02 5.6237353e-04 
5.0270114e-04 3.8451224e-02 7.7069264e-05 
1.7610197e-03 3.8871045e-02 -2.1259573e-04 
9.6254419e-04 4.0163379e-02 6.3189498e-04 
5.3915308e-04 3.8426113e-02 8.2549251e-05 
1.6004517e-03 3.8892395e-02 -2.8213588e-04 
7.1430467e-04 3.7959914e-02 1.8650414e-04 
8.3345381e-04 4.0134176e-02 7.0135929e-04 
5.7541798e-04 3.8411141e-02 9.1557937e-05 
1.4380204e-03 3.8915182e-02 -3.5162027e-04 
7.0865375e-04 4.0111692e-02 7.7218555e-04 
6.1105445e-04 3.8406152e-02 1.0326634e-04 
7.3775823e-04 3.8015643e-02 2.0390643e-04 
1.2739767e-03 3.8942230e-02 -4.2246799e-04 
5.8785602e-04 4.0084814e-02 8.3134919e-04 
6.4561392e-04 3.8411164e-02 1.1784690e-04 
1.1085963e-03 3.8961962e-02 -4.8165201e-04 
7.5812225e-04 3.7971899e-02 2.5966362e-04 
4.7074675e-04 4.0096170e-02 9.9894578e-04 
6.7864530e-04 3.8426160e-02 1.3543550e-04 
9.4217582e-04 3.9016601e-02 -6.4928912e-04 
2.3903661e-03 3.9323009e-02 9.5686963e-05 
1.6318491e-03 4.0896376e-02 2.5386328e-04 
1.4805610e-03 4.0847485e-02 3.6296409e-04 
3.5698903e-04 3.9987663e-02 1.6753114e-04 
2.2423479e-03 3.9335137e-02 -1.3437744e-05 
3.9234908e-04 3.9012142e-02 5.4621016e-05 
1.3349126e-03 4.0801272e-02 4.2790289e-04 
2.0915058e-03 3.9350332e-02 -7.8393728e-05 
7.0969967e-04 3.8451293e-02 1.5509335e-04 
4.2935138e-04 3.9055930e-02 7.9315023e-05 
7.7502907e-04 3.8947645e-02 1.8226262e-04 
1.1947671e-03 4.0758138e-02 4.9772016e-04 
1.9379654e-03 3.9368330e-02 -1.4823094e-04 
4.6758581e-04 3.9000258e-02 7.0507213e-05 
1.0599467e-03 4.0718401e-02 5.6709638e-04 
1.7818903e-03 3.9388797e-02 -2.1762838e-04 
5.0661807e-04 3.8966451e-02 7.4269646e-05 
9.3023466e-04 4.0682634e-02 6.3662513e-04 
1.6234802e-03 3.9411686e-02 -2.8717933e-04 
7.3833525e-04 3.8485137e-02 1.8000665e-04 
5.4599375e-04 3.8941351e-02 7.8430762e-05 
8.0537726e-04 4.0650352e-02 7.0609082e-04 
1.4629679e-03 3.9435924e-02 -3.5666782e-04 
5.8524270e-04 3.8926386e-02 8.6367007e-05 
7.6412234e-04 3.8540851e-02 1.9773740e-04 
6.8508663e-04 4.0624903e-02 7.7691272e-04 
1.3006160e-03 3.9464313e-02 -4.2751310e-04 
6.2388371e-04 3.8921400e-02 9.7255855e-05 
5.6904329e-04 4.0595195e-02 8.3606543e-04 
1.1367136e-03 3.9485255e-02 -4.8668671e-04 
6.6142928e-04 3.8926411e-02 1.1127302e-04 
7.8664829e-04 3.8497080e-02 2.5403352e-04 
4.5689928e-04 4.0603881e-02 1.0036527e-03 
9.7157237e-04 3.9540960e-02 -6.5431817e-04 
6.9739070e-04 3.8941403e-02 1.2855430e-04 
2.4017429e-03 3.9822632e-02 9.0866909e-05 
2.2569546e-03 3.9836572e-02 -1.8318256e-05 
8.0552247e-04 3.9472895e-02 1.7735208e-04 
3.4828147e-04 4.0492868e-02 1.7215610e-04 
2.1090434e-03 3.9853595e-02 -8.3302358e-05 
1.5800344e-03 4.1423999e-02 2.5840075e-04 
7.3128316e-04 3.8966529e-02 1.4815732e-04 
3.8611472e-04 3.9517316e-02 5.6934634e-05 
1.4312061e-03 4.1371605e-02 3.6755131e-04 
4.2582932e-04 3.9561132e-02 7.9535880e-05 
1.2884306e-03 4.1321868e-02 4.3251268e-04 
1.9581409e-03 3.9873408e-02 -1.5316397e-04 
4.6697379e-04 3.9505477e-02 6.8863901e-05 
1.1515569e-03 4.1275222e-02 5.0234898e-04 
1.8044192e-03 3.9895648e-02 -2.2257895e-04 
5.0907121e-04 3.9471684e-02 7.1009078e-05 
1.0203886e-03 4.1232016e-02 5.7173815e-04 
1.6480881e-03 3.9920242e-02 -2.9214091e-04 
7.6263098e-04 3.9000361e-02 1.7326155e-04 
5.5162388e-04 3.9446595e-02 7.3812118e-05 
8.9468609e-04 4.1192850e-02 6.4127405e-04 
1.4893925e-03 3.9946092e-02 -3.6163380e-04 
5.9411816e-04 3.9431636e-02 8.0659284e-05 
7.7416926e-04 4.1157270e-02 7.1074111e-04 
7.9097287e-04 3.9056062e-02 1.9141745e-04 
1.3286089e-03 3.9975977e-02 -4.3247699e-04 
6.3602966e-04 3.9426653e-02 9.0734245e-05 
6.5851999e-04 4.1128649e-02 7.8155873e-04 
1.1660423e-03 3.9998278e-02 -4.9164057e-04 
6.7682854e-04 3.9431664e-02 1.0421542e-04 
5.4738543e-04 4.1095918e-02 8.4070072e-04 
8.1586717e-04 3.9012263e-02 2.4836284e-04 
1.0020218e-03 4.0055192e-02 -6.5926704e-04 
7.1598495e-04 3.9446651e-02 1.2123773e-04 
4.4038144e-04 4.1101758e-02 1.0082787e-03 
2.4150054e-03 4.0310516e-02 8.6122392e-05 
2.2734788e-03 4.0326456e-02 -2.3123023e-05 
8.3689701e-04 3.9988149e-02 1.7252296e-04 
2.1284997e-03 4.0345495e-02 -8.8135242e-05 
7.5297457e-04 3.9471769e-02 1.4085410e-04 
3.3709636e-04 4.0988082e-02 1.7670203e-04 
3.7761447e-04 4.0012499e-02 5.9031842e-05 
1.5246113e-03 4.1943956e-02 2.6286496e-04 
1.9802071e-03 4.0367311e-02 -1.5802133e-04 
4.2027388e-04 4.0056343e-02 7.9424365e-05 
1.3782042e-03 4.1887801e-02 3.7206434e-04 
1.2382969e-03 4.1834279e-02 4.3704784e-04 
4.6457885e-04 4.0000705e-02 6.6795148e-05 
1.8287825e-03 4.0391511e-02 -2.2745402e-04 
1.1047230e-03 4.1783861e-02 5.0690281e-04 
5.1000671e-04 3.9966926e-02 6.7253726e-05 
9.7726657e-04 4.1736928e-02 5.7630464e-04 
1.6744476e-03 4.0417993e-02 -2.9702724e-04 
7.8728424e-04 3.9505591e-02 1.6623599e-04 
5.5601309e-04 3.9941847e-02 6.8653598e-05 
8.5566394e-04 4.1694115e-02 6.4584753e-04 
1.5174612e-03 4.0445633e-02 -3.6652484e-04 
6.0203737e-04 3.9926895e-02 7.4390990e-05 
7.3960673e-04 4.1654997e-02 7.1531588e-04 
8.1841751e-04 3.9561279e-02 1.8492078e-04 
1.3581158e-03 4.0477187e-02 -4.3736631e-04 
6.4750836e-04 3.9921914e-02 8.3655577e-05 
6.2874479e-04 4.1622978e-02 7.8612923e-04 
1.1967347e-03 4.0501010e-02 -4.9652029e-04 
6.9185011e-04 3.9926925e-02 9.6627991e-05 
5.2268972e-04 4.1587016e-02 8.4526065e-04 
8.4590020e-04 3.9517452e-02 2.4263463e-04 
1.0336675e-03 4.0559287e-02 -6.6414247e-04 
7.3448784e-04 3.9941908e-02 1.1344144e-04 
4.2101876e-04 4.1589817e-02 1.0128295e-03 
8.6928581e-04 4.0493412e-02 1.6776879e-04 
2.4303498e-03 4.0786493e-02 8.1447036e-05 
2.2921185e-03 4.0804640e-02 -2.7858450e-05 
2.1500731e-03 4.0825904e-02 -9.2898811e-05 
7.7485392e-04 3.9967019e-02 1.3314312e-04 
3.2327910e-04 4.1473307e-02 1.8117464e-04 
3.6671523e-04 4.0497696e-02 6.0905219e-05 
2.0043610e-03 4.0849929e-02 -1.6280949e-04 
4.1257504e-04 4.0541567e-02 7.8961415e-05 
1.4653116e-03 4.2456451e-02 2.6726158e-04 
1.3212834e-03 4.2396252e-02 3.7650892e-04 
4.6031520e-04 4.0485946e-02 6.4271953e-05 
1.8551744e-03 4.0876294e-02 -2.3226009e-04 
1.1842390e-03 4.2338662e-02 4.4151413e-04 
1.0539959e-03 4.2284189e-02 5.1138737e-04 
5.0936374e-04 4.0452181e-02 6.2966466e-05 
1.7027484e-03 4.0904865e-02 -3.0184483e-04 
8.1239386e-04 4.0000830e-02 1.5889514e-04 
9.3031728e-04 4.2233252e-02 5.8080158e-04 
5.5912591e-04 4.0427112e-02 6.2911882e-05 
1.5473575e-03 4.0934491e-02 -3.7134749e-04 
8.1291399e-04 4.2186523e-02 6.5035124e-04 
6.0899023e-04 4.0412166e-02 6.7514616e-05 
8.4657227e-04 4.0056505e-02 1.7822024e-04 
7.0144763e-04 4.2143609e-02 7.1982076e-04 
1.3893128e-03 4.0967902e-02 -4.4218766e-04 
6.5833473e-04 4.0407189e-02 7.5970220e-05 
5.9553388e-04 4.2107948e-02 7.9062981e-04 
1.2289581e-03 4.0993428e-02 -5.0133249e-04 
7.0653332e-04 4.0412199e-02 8.8461067e-05 
8.7687877e-04 4.0012650e-02 2.3683129e-04 
4.9474634e-04 4.2068526e-02 8.4975071e-04 
1.0666661e-03 4.1053237e-02 -6.6895118e-04 
7.5296218e-04 4.0427177e-02 1.0511788e-04 
3.9862091e-04 4.2068079e-02 1.0173103e-03 
9.0283367e-04 4.0988686e-02 1.6308319e-04 
2.4479911e-03 4.1250387e-02 7.6834588e-05 
2.3130911e-03 4.1270967e-02 -3.2530841e-05 
2.1739814e-03 4.1294683e-02 -9.7599402e-05 
7.9700626e-04 4.0452281e-02 1.2498104e-04 
3.0666060e-04 4.1948546e-02 1.8557950e-04 
2.0308189e-03 4.1321146e-02 -1.6753481e-04 
3.5327097e-04 4.0972909e-02 6.2546055e-05 
4.0261155e-04 4.1016807e-02 7.8125723e-05 
1.4018450e-03 4.2961704e-02 2.7159623e-04 
1.8838080e-03 4.1349900e-02 -2.3700356e-04 
1.2601493e-03 4.2897157e-02 3.8089072e-04 
4.5408767e-04 4.0961204e-02 6.1262326e-05 
1.1259619e-03 4.2835192e-02 4.4591721e-04 
5.0707409e-04 4.0927453e-02 5.8106657e-05 
9.9908353e-04 4.2776359e-02 5.1580832e-04 
1.7331985e-03 4.1380782e-02 -3.0660015e-04 
8.3806568e-04 4.0486081e-02 1.5120198e-04 
8.7925511e-04 4.2721117e-02 5.8523458e-04 
5.6092155e-04 4.0902394e-02 5.6539799e-05 
1.5792828e-03 4.1412608e-02 -3.7610824e-04 
7.6616038e-04 4.2670178e-02 6.5479076e-04 
6.1496344e-04 4.0887454e-02 5.9978651e-05 
8.7556210e-04 4.0541743e-02 1.7128717e-04 
1.4223926e-03 4.1448081e-02 -4.4694758e-04 
6.5942898e-04 4.2623187e-02 7.2426128e-04 
6.6852269e-04 4.0882479e-02 6.7624563e-05 
1.2628950e-03 4.1475505e-02 -5.0608373e-04 
5.5864011e-04 4.2583617e-02 7.9506593e-04 
7.2091865e-04 4.0887488e-02 7.9661207e-05 
9.0894505e-04 4.0497860e-02 2.3093444e-04 
4.6332668e-04 4.2540486e-02 8.5417632e-04 
1.1011883e-03 4.1537032e-02 -6.7369981e-04 
7.7147411e-04 4.0902462e-02 9.6216055e-05 
3.7298015e-04 4.2536565e-02 1.0217264e-03 
9.3769793e-04 4.1473976e-02 1.5845987e-04 
2.4681650e-03 4.1702009e-02 7.2278914e-05 
2.3366344e-03 4.1725269e-02 -3.7146388e-05 
2.2004630e-03 4.1751686e-02 -1.0224325e-04 
8.1952217e-04 4.0927558e-02 1.1632156e-04 
2.0598178e-03 4.1780836e-02 -1.7220359e-04 
2.8705593e-04 4.2413804e-02 1.8992209e-04 
3.3712159e-04 4.1438144e-02 6.3944266e-05 
3.9025005e-04 4.1482069e-02 7.6893581e-05 
1.9149165e-03 4.1812225e-02 -2.4169077e-04 
4.4579107e-04 4.1426483e-02 5.7731090e-05 
1.3338969e-03 4.3459957e-02 2.7587451e-04 
1.1944828e-03 4.3390731e-02 3.8521533e-04 
1.0631460e-03 4.3324059e-02 4.5026267e-04 
1.7660257e-03 4.1845657e-02 -3.1129957e-04 
8.6441321e-04 4.0961347e-02 1.4311712e-04 
5.0306173e-04 4.1392745e-02 5.2629894e-05 
9.3966931e-04 4.3260533e-02 5.2017123e-04 
5.6135364e-04 4.1367695e-02 4.9486055e-05 
1.6134573e-03 4.1879918e-02 -3.8081354e-04 
8.2377012e-04 4.3200661e-02 5.8960920e-04 
7.1510339e-04 4.3145194e-02 6.5917163e-04 
6.1994044e-04 4.1352761e-02 5.1727299e-05 
9.0552170e-04 4.1016997e-02 1.6409122e-04 
1.4575658e-03 4.1917679e-02 -4.5165254e-04 
6.1326475e-04 4.3093821e-02 7.2864292e-04 
6.7808521e-04 4.1347788e-02 5.8560726e-05 
1.2987443e-03 4.1947216e-02 -5.1078054e-04 
5.1779437e-04 4.3050052e-02 7.9944301e-04 
9.4225290e-04 4.0973086e-02 2.2492489e-04 
7.3504805e-04 4.1352796e-02 7.0170877e-05 
1.1374199e-03 4.2010661e-02 -6.7839497e-04 
4.2818149e-04 4.3002942e-02 8.5854282e-04 
7.9009356e-04 4.1367765e-02 8.6681196e-05 
9.7404936e-04 4.1949284e-02 1.5389259e-04 
3.4386970e-04 4.2995296e-02 1.0260831e-03 
2.4911282e-03 4.2141158e-02 6.7774017e-05 
2.3630081e-03 4.2167368e-02 -4.1711175e-05 
2.2297780e-03 4.2196757e-02 -1.0683650e-04 
8.4249832e-04 4.1392853e-02 1.0711511e-04 
2.0916161e-03 4.2228864e-02 -1.7682203e-04 
2.6426291e-04 4.2869085e-02 1.9420779e-04 
3.1809175e-04 4.1893403e-02 6.5088303e-05 
1.9487548e-03 4.2263157e-02 -2.4632798e-04 
3.7534414e-04 4.1937355e-02 7.5238720e-05 
4.3530950e-04 4.1881786e-02 5.3639654e-05 
1.2611265e-03 4.3951474e-02 2.8010198e-04 
1.8014786e-03 4.2299403e-02 -3.1594940e-04 
8.9155833e-04 4.1426631e-02 1.3459853e-04 
1.1239382e-03 4.3877212e-02 3.8948834e-04 
9.9544473e-04 4.3805471e-02 4.5455605e-04 
4.9724228e-04 4.1848061e-02 4.6487759e-05 
8.7540968e-04 4.3736894e-02 5.2448163e-04 
1.6501211e-03 4.2336353e-02 -3.8546974e-04 
5.6036997e-04 4.1823021e-02 4.1694957e-05 
7.6352571e-04 4.3672035e-02 5.9393092e-04 
9.3659627e-04 4.1482268e-02 1.5660020e-04 
6.2390131e-04 4.1808092e-02 4.2700187e-05 
1.4950620e-03 4.2376647e-02 -4.5630896e-04 
6.5941721e-04 4.3611696e-02 6.6349927e-04 
5.6264363e-04 4.3555607e-02 7.3297110e-04 
6.8703447e-04 4.1803120e-02 4.8716265e-05 
1.3367228e-03 4.2408529e-02 -5.1542938e-04 
9.7696874e-04 4.1438330e-02 2.1878247e-04 
4.7270341e-04 4.3507325e-02 8.0376642e-04 
7.4896513e-04 4.1808126e-02 5.9928174e-05 
1.1755626e-03 4.2474110e-02 -6.8304324e-04 
3.8903888e-04 4.3455940e-02 8.6285551e-04 
8.0889466e-04 4.1823091e-02 7.6454534e-05 
1.0120732e-03 4.2414616e-02 1.4937521e-04 
3.1104190e-04 4.3444298e-02 1.0303855e-03 
2.5171603e-03 4.2567618e-02 6.3314044e-05 
2.3924948e-03 4.2597071e-02 -4.6231167e-05 
2.2622098e-03 4.2629728e-02 -1.1138519e-04 
8.6603807e-04 4.1848170e-02 9.7308593e-05 
2.1264955e-03 4.2665086e-02 -1.8139623e-04 
2.3806057e-04 4.3314391e-02 1.9844187e-04 
1.9856001e-03 4.2702574e-02 -2.5092137e-04 
2.9598961e-04 4.2338692e-02 6.5965054e-05 
3.5773336e-04 4.2382671e-02 7.3132132e-05 
4.2251558e-04 4.2327118e-02 4.8945794e-05 
1.8398278e-03 4.2741920e-02 -3.2055589e-04 
9.1963197e-04 4.1881937e-02 1.2560135e-04 
1.1831638e-03 4.4436543e-02 2.8428423e-04 
1.0481407e-03 4.4356858e-02 3.9371527e-04 
4.8952258e-04 4.2293406e-02 3.9627554e-05 
9.2248209e-04 4.4279657e-02 4.5880286e-04 
1.6895357e-03 4.2781837e-02 -3.9008314e-04 
8.0593174e-04 4.4205638e-02 5.2874496e-04 
5.5791220e-04 4.2268374e-02 3.3106133e-05 
6.9815615e-04 4.4135408e-02 5.9820516e-04 
9.6894241e-04 4.1937562e-02 1.4877990e-04 
1.5351308e-03 4.2824931e-02 -4.6092319e-04 
6.2682275e-04 4.2253450e-02 3.2832077e-05 
5.9874745e-04 4.4069820e-02 6.6777909e-04 
6.9538192e-04 4.2248479e-02 3.8023880e-05 
5.0722663e-04 4.4008655e-02 7.3725116e-04 
1.3770662e-03 4.2859412e-02 -5.2003664e-04 
1.0132726e-03 4.1893594e-02 2.1248598e-04 
4.2304757e-04 4.3955514e-02 8.0804147e-04 
7.6271551e-04 4.2253482e-02 4.8866526e-05 
1.2158359e-03 4.2927367e-02 -6.8765113e-04 
3.4560215e-04 4.3899533e-02 8.6711967e-04 
8.2795620e-04 4.2268441e-02 6.5472995e-05 
1.0519703e-03 4.2869973e-02 1.4490165e-04 
2.7422631e-04 4.3883598e-02 1.0346389e-03 
2.5465647e-03 4.2981159e-02 5.8893297e-05 
2.4254014e-03 4.3014174e-02 -5.0712213e-05 
2.2980661e-03 4.3050419e-02 -1.1589526e-04 
8.9025202e-04 4.2293511e-02 8.6845180e-05 
2.1647619e-03 4.3089348e-02 -1.8593224e-04 
2.0257541e-03 4.3130348e-02 -2.5547704e-04 
2.0820741e-04 4.3749727e-02 2.0262952e-04 
2.7060542e-04 4.2774015e-02 6.6559727e-05 
3.3724215e-04 4.2818019e-02 7.0541874e-05 
1.8813678e-03 4.3173104e-02 -3.2512522e-04 
9.4877491e-04 4.2327266e-02 1.1607765e-04 
4.0726967e-04 4.2762483e-02 4.3603397e-05 
1.0996081e-03 4.4915479e-02 2.8842687e-04 
9.6668366e-04 4.4829949e-02 3.9790163e-04 
4.7980012e-04 4.2728784e-02 3.1992031e-05 
8.4385031e-04 4.4746865e-02 4.6300855e-04 
1.7319855e-03 4.3216290e-02 -3.9465997e-04 
7.3083071e-04 4.4666981e-02 5.3296663e-04 
5.5391559e-04 4.2703760e-02 2.3654241e-05 
6.2726406e-04 4.4590962e-02 6.0243728e-04 
1.0027290e-03 4.2382879e-02 1.4059391e-04 
1.5780441e-03 4.3262474e-02 -4.6550152e-04 
6.2867793e-04 4.2688839e-02 2.2052566e-05 
5.3270855e-04 4.4519716e-02 6.7201642e-04 
1.4200306e-03 4.3299829e-02 -5.2460867e-04 
7.0313840e-04 4.2683868e-02 2.6411120e-05 
4.4664448e-04 4.4453079e-02 7.4148843e-04 
1.0513591e-03 4.2338883e-02 2.0601306e-04 
3.6847822e-04 4.4394705e-02 8.1227347e-04 
1.2584778e-03 4.3370416e-02 -6.9222507e-04 
7.7634706e-04 4.2688867e-02 3.6914409e-05 
2.9754743e-04 4.4333777e-02 8.7134056e-04 
8.4736204e-04 4.2703819e-02 5.3668925e-05 
1.0939584e-03 4.3315358e-02 1.4046586e-04 
2.5796705e-03 4.3381535e-02 5.4506246e-05 
2.3312752e-04 4.4313225e-02 1.0388484e-03 
2.4620606e-03 4.3418455e-02 -5.5160044e-05 
9.1525869e-04 4.2728880e-02 7.5663991e-05 
2.3376807e-03 4.3458635e-02 -1.2037255e-04 
2.2067476e-03 4.3501482e-02 -1.9043600e-04 
2.0695443e-03 4.3546337e-02 -2.6000105e-04 
1.7443967e-04 4.4175099e-02 2.0677583e-04 
2.4171011e-04 4.3199376e-02 6.6855719e-05 
3.1367868e-04 4.3243407e-02 6.7432863e-05 
1.9264184e-03 4.3592841e-02 -3.2966351e-04 
9.7913858e-04 4.2762622e-02 1.0597618e-04 
3.8941906e-04 4.3187887e-02 3.7562212e-05 
4.6796247e-04 4.3154199e-02 2.3519101e-05 
1.0100249e-03 4.5388623e-02 2.9253558e-04 
1.7777796e-03 4.3639624e-02 -3.9920641e-04 
8.7912680e-04 4.5296793e-02 4.0205293e-04 
7.5910733e-04 4.5207365e-02 4.6717850e-04 
5.4830864e-04 4.3129181e-02 1.3268668e-05 
6.4966734e-04 4.5121157e-02 5.3715194e-04 
1.0381384e-03 4.2818222e-02 1.3200342e-04 
1.6240969e-03 4.3689213e-02 -4.7005017e-04 
5.5041764e-04 4.5038894e-02 6.0663254e-04 
6.2943643e-04 4.3114262e-02 1.0285788e-05 
4.6088100e-04 4.4961547e-02 6.7621651e-04 
1.4658943e-03 4.3729740e-02 -5.2915172e-04 
7.1031427e-04 4.3109290e-02 1.3800081e-05 
3.8049484e-04 4.4889011e-02 7.4568817e-04 
1.0914388e-03 4.2774197e-02 1.9934005e-04 
1.3037467e-03 4.3803239e-02 -6.9677146e-04 
7.8991018e-04 4.3114284e-02 2.3995051e-05 
3.0861505e-04 4.4824994e-02 8.1646771e-04 
1.1382734e-03 4.3750776e-02 1.3606187e-04 
8.6720163e-04 4.3129227e-02 4.0969810e-05 
2.4452111e-04 4.4758734e-02 8.7552348e-04 
2.6168338e-03 4.3768479e-02 5.0147538e-05 
2.5028326e-03 4.3809677e-02 -5.9580283e-05 
1.8742289e-04 4.4733213e-02 1.0430194e-03 
2.3814150e-03 4.3854167e-02 -1.2482285e-04 
9.4118514e-04 4.3154277e-02 6.3699856e-05 
2.2528120e-03 4.3901308e-02 -1.9491342e-04 
2.1173255e-03 4.3950390e-02 -2.6449942e-04 
1.3646928e-04 4.4590512e-02 2.1088579e-04 
2.0905370e-04 4.3614782e-02 6.6834471e-05 
1.9753265e-03 4.4001008e-02 -3.3417683e-04 
1.0108859e-03 4.3188007e-02 9.5242185e-05 
2.8683371e-04 4.3658838e-02 6.3766639e-05 
3.6879710e-04 4.3603333e-02 3.0767561e-05 
1.8272536e-03 4.4051743e-02 -4.0372860e-04 
4.5388678e-04 4.3569656e-02 1.4141527e-05 
9.1394352e-04 4.5856344e-02 2.9661611e-04 
7.8499313e-04 4.5757721e-02 4.0617461e-04 
6.6777417e-04 4.5661453e-02 4.7131802e-04 
5.4101284e-04 4.3544643e-02 1.8732179e-06 
1.0753670e-03 4.3243593e-02 1.2296707e-04 
1.6736098e-03 4.4105079e-02 -4.7457530e-04 
5.6196521e-04 4.5568422e-02 5.4130611e-04 
4.6714792e-04 4.5479424e-02 6.1079613e-04 
6.2906416e-04 4.3529725e-02 -2.5499009e-06 
1.5149594e-03 4.4149103e-02 -5.3367199e-04 
3.8280842e-04 4.5395493e-02 6.8038455e-04 
7.1691948e-04 4.3524749e-02 1.0710358e-07 
1.1337394e-03 4.3199538e-02 1.9244194e-04 
3.0833933e-04 4.5316589e-02 7.4985562e-04 
1.3519229e-03 4.4225817e-02 -7.0129655e-04 
8.0345817e-04 4.3529735e-02 1.0026139e-05 
2.4304313e-04 4.5246485e-02 8.2062947e-04 
1.1851708e-03 4.4176226e-02 1.3168372e-04 
8.8757045e-04 4.3544669e-02 2.7297990e-05 
1.8613704e-04 4.5174474e-02 8.7967378e-04 
2.6584391e-03 4.4141708e-02 4.5812007e-05 
2.5481062e-03 4.4187587e-02 -6.3978462e-05 
2.4296593e-03 4.4236792e-02 -1.2925186e-04 
9.6816763e-04 4.3569706e-02 5.0883045e-05 
1.3675998e-04 4.5143596e-02 1.0471572e-03 
2.3033443e-03 4.4288631e-02 -1.9937040e-04 
2.1694821e-03 4.4342342e-02 -2.6897812e-04 
9.3981779e-05 4.4995973e-02 2.1496427e-04 
1.7236358e-04 4.4020238e-02 6.6475293e-05 
2.0284682e-03 4.4397469e-02 -3.3867125e-04 
1.0441920e-03 4.3603422e-02 8.3817106e-05 
2.5647926e-04 4.4064319e-02 5.9501110e-05 
3.4522231e-04 4.4008829e-02 2.3160028e-05 
1.8807712e-03 4.4452541e-02 -4.0823262e-04 
4.3743913e-04 4.3975160e-02 3.7865923e-06 
8.1085507e-04 4.6319043e-02 3.0067426e-04 
6.8376677e-04 4.6213094e-02 4.1027205e-04 
1.1146269e-03 4.3658994e-02 1.1344069e-04 
5.3194233e-04 4.3950150e-02 -1.0614233e-05 
5.6933238e-04 4.6109447e-02 4.7543229e-04 
1.7269307e-03 4.4509995e-02 -4.7908303e-04 
4.6720800e-04 4.6009056e-02 5.4543419e-04 
6.2752325e-04 4.3935230e-02 -1.6542260e-05 
3.7694582e-04 4.5912787e-02 6.1493303e-04 
1.5675538e-03 4.4557869e-02 -5.3817558e-04 
2.9799452e-04 4.5821748e-02 6.8452557e-04 
7.2296374e-04 4.3930248e-02 -1.4757558e-05 
1.1785068e-03 4.3614908e-02 1.8529215e-04 
2.2970037e-04 4.5735968e-02 7.5399592e-04 
1.4033106e-03 4.4638128e-02 -7.0580651e-04 
8.1704744e-04 4.3935225e-02 -5.0805055e-06 
1.7130974e-04 4.5659290e-02 8.2476405e-04 
1.2349275e-03 4.4591712e-02 1.2732545e-04 
9.0857056e-04 4.3950146e-02 1.2570351e-05 
1.2197346e-04 4.5581072e-02 8.8379689e-04 
2.7049011e-03 4.4500919e-02 4.1494673e-05 
2.5983006e-03 4.4551910e-02 -6.8360050e-05 
9.9635235e-04 4.3975169e-02 3.7138970e-05 
2.4828349e-03 4.4606266e-02 -1.3366531e-04 
8.0753755e-05 4.5544415e-02 1.0512676e-03 
2.3587644e-03 4.4663240e-02 -2.0381283e-04 
2.2264295e-03 4.4722016e-02 -2.7344319e-04 
2.0862504e-03 4.4782079e-02 -3.4315286e-04 
1.0792455e-03 4.4008868e-02 7.1638345e-05 
4.6633943e-05 4.5391489e-02 2.1901601e-04 
1.3134277e-04 4.4415751e-02 6.5755167e-05 
2.2236735e-04 4.4459856e-02 5.4590245e-05 
3.1849743e-04 4.4404378e-02 1.4675099e-05 
1.9387270e-03 4.4841906e-02 -4.1272456e-04 
4.1847397e-04 4.4370716e-02 -7.6242888e-06 
1.1561466e-03 4.4064425e-02 1.0337715e-04 
7.0020959e-04 4.6777151e-02 3.0471589e-04 
1.7844369e-03 4.4903880e-02 -4.8357939e-04 
5.7489052e-04 4.6663300e-02 4.1435044e-04 
5.2100360e-04 4.4345707e-02 -2.4282126e-05 
4.6322164e-04 4.6551694e-02 4.7952627e-04 
3.6483686e-04 4.6443360e-02 5.4954095e-04 
6.2477203e-04 4.4330782e-02 -3.1785553e-05 
1.6240333e-03 4.4955985e-02 -5.4266848e-04 
2.7925924e-04 4.6339244e-02 6.1904803e-04 
2.0589990e-04 4.6240527e-02 6.8864445e-04 
1.2260070e-03 4.4020307e-02 1.7786244e-04 
7.2845660e-04 4.4325791e-02 -3.0890115e-05 
1.4582396e-03 4.5040147e-02 -7.1030729e-04 
1.4405781e-04 4.6147319e-02 7.5811412e-04 
8.3073793e-04 4.4330755e-02 -2.1419285e-05 
9.2920902e-05 4.6063537e-02 8.2887677e-04 
1.2878435e-03 4.4997233e-02 1.2298112e-04 
9.3031104e-04 4.4345661e-02 -3.3020186e-06 
5.1569663e-05 4.5978612e-02 8.8789837e-04 
2.7566660e-03 4.4845785e-02 3.7190724e-05 
2.6538672e-03 4.4902354e-02 -7.2730508e-05 
1.0258961e-03 4.4370667e-02 2.2387870e-05 
2.5413953e-03 4.4962331e-02 -1.3806895e-04 
1.8983587e-05 4.5935716e-02 1.0553564e-03 
2.4195252e-03 4.5024910e-02 -2.0824671e-04 
2.2886163e-03 4.5089217e-02 -2.7790076e-04 
2.1491135e-03 4.5154679e-02 -3.4762780e-04 
1.1162490e-03 4.4404347e-02 5.8638966e-05 
-5.9487343e-06 4.5777070e-02 2.2304554e-04 
8.5667947e-05 4.4801329e-02 6.4648495e-05 
1.8422849e-04 4.4845457e-02 4.8983721e-05 
2.8840848e-04 4.4789990e-02 5.2427359e-06 
2.0015482e-03 4.5219713e-02 -4.1721052e-04 
3.9683354e-04 4.4756331e-02 -2.0176036e-05 
1.2001726e-03 4.4459887e-02 9.2726055e-05 
1.8465379e-03 4.5286643e-02 -4.8807038e-04 
5.8141410e-04 4.7231131e-02 3.0874685e-04 
5.0809515e-04 4.4731319e-02 -3.9225704e-05 
4.5776371e-04 4.7108760e-02 4.1841477e-04 
3.4883736e-04 4.6988568e-02 4.8360457e-04 
2.5424781e-04 4.6871664e-02 5.5363083e-04 
6.2076492e-04 4.4716386e-02 -4.8381027e-05 
1.6847840e-03 4.5343394e-02 -5.4715658e-04 
1.7349014e-04 4.6759074e-02 6.2314554e-04 
1.2765274e-03 4.4415735e-02 1.7012271e-04 
7.3340767e-04 4.4711381e-02 -4.8393710e-05 
1.0593881e-04 4.6652064e-02 6.9274577e-04 
1.5170677e-03 4.5431845e-02 -7.1480464e-04 
5.0845365e-05 4.6550827e-02 7.6221513e-04 
8.4459341e-04 4.4716329e-02 -3.9091274e-05 
1.3442436e-03 4.5392789e-02 1.1864471e-04 
7.3377350e-06 4.6459363e-02 8.3297290e-04 
9.5290859e-04 4.4731215e-02 -2.0414251e-05 
-2.5577646e-05 4.6367186e-02 8.9198391e-04 
2.8142129e-03 4.5175961e-02 3.2895485e-05 
2.7152901e-03 4.5238606e-02 -7.7095367e-05 
2.6058276e-03 4.5304707e-02 -1.4246870e-04 
1.0569670e-03 4.4756200e-02 6.5444163e-06 
2.4861138e-03 4.5373396e-02 -2.1267822e-04 
-4.9010153e-05 4.6317547e-02 1.0594301e-03 
2.3565259e-03 4.5443738e-02 -2.8235712e-04 
2.2175327e-03 4.5515097e-02 -3.5210238e-04 
1.1554205e-03 4.4789859e-02 4.4747344e-05 
-6.4174846e-05 4.6152728e-02 2.2705719e-04 
3.4987331e-05 4.5176981e-02 6.3126809e-05 
1.4177027e-04 4.5221129e-02 4.2626483e-05 
2.0696972e-03 4.5585825e-02 -4.2169669e-04 
2.5472367e-04 4.5165670e-02 -5.2131625e-06 
3.7234715e-04 4.5132011e-02 -3.3960497e-05 
1.2469703e-03 4.4845380e-02 8.1433474e-05 
1.9136772e-03 4.5658182e-02 -4.9256199e-04 
4.9310722e-04 4.5106992e-02 -5.5547636e-05 
4.5383063e-04 4.7681479e-02 3.1277287e-04 
3.3174037e-04 4.7549922e-02 4.2246955e-04 
2.2552878e-04 4.7420473e-02 4.8767126e-04 
1.7502248e-03 4.5720029e-02 -5.5164563e-04 
6.1545241e-04 4.5092045e-02 -6.6437550e-05 
1.3478940e-04 4.7294324e-02 5.5770768e-04 
5.8991789e-05 4.7172586e-02 6.2722944e-04 
1.3303782e-03 4.4801191e-02 1.6204082e-04 
7.3782674e-04 4.5087023e-02 -6.7379040e-05 
-2.5240994e-06 4.7056615e-02 6.9683370e-04 
1.5801832e-03 4.5813192e-02 -7.1930401e-04 
-5.0552993e-05 4.6946695e-02 7.6630358e-04 
8.5868182e-04 4.5091949e-02 -5.8204816e-05 
1.4044796e-03 4.5778378e-02 1.1431012e-04 
-8.6027526e-05 4.6846922e-02 8.3705771e-04 
9.7648805e-04 4.5106811e-02 -3.8868248e-05 
-1.1001834e-04 4.6746898e-02 8.9605940e-04 
2.8780550e-03 4.5491079e-02 2.8604346e-05 
2.7830877e-03 4.5560335e-02 -8.1460357e-05 
2.6766536e-03 4.5633096e-02 -1.4687075e-04 
1.0897454e-03 4.5131771e-02 -1.0482781e-05 
2.5590528e-03 4.5708436e-02 -2.1711388e-04 
-1.2372978e-04 4.6689965e-02 1.0634954e-03 
2.4306783e-03 4.5785354e-02 -2.8681891e-04 
2.2920210e-03 4.5863146e-02 -3.5658315e-04 
1.1969940e-03 4.5165404e-02 2.9886738e-05 
-1.2849015e-04 4.6518475e-02 2.3105495e-04 
-2.1081601e-05 4.5542716e-02 6.1158389e-05 
9.4675580e-05 4.5586883e-02 3.5458183e-05 
2.1436740e-03 4.5940094e-02 -4.2618938e-04 
2.1719231e-04 4.5531427e-02 -1.6775460e-05 
3.4483053e-04 4.5497763e-02 -4.9077251e-05 
1.2968255e-03 4.5220902e-02 6.9441609e-05 
1.9863355e-03 4.6018389e-02 -4.9706020e-04 
4.7592137e-04 4.5472731e-02 -7.3358883e-05 
3.1677478e-04 4.8128723e-02 3.1679940e-04 
1.9612786e-04 4.7987268e-02 4.2651864e-04 
1.8208104e-03 4.6085818e-02 -5.5614122e-04 
9.2597328e-05 4.7847843e-02 4.9172965e-04 
6.0878096e-04 4.5457765e-02 -8.6072503e-05 
5.7607736e-06 4.7711723e-02 5.6177454e-04 
1.3878945e-03 4.5176674e-02 1.5358231e-04 
-6.4933782e-05 4.7580111e-02 6.3130290e-04 
7.4172399e-04 4.5452719e-02 -8.7965248e-05 
1.6480072e-03 4.6184149e-02 -7.2381044e-04 
-1.2017697e-04 4.7454459e-02 7.0091182e-04 
8.7307577e-04 4.5457617e-02 -7.8876371e-05 
-1.6080685e-04 4.7335150e-02 7.7038373e-04 
1.4689325e-03 4.6153995e-02 1.0997106e-04 
-1.8781570e-04 4.7226382e-02 8.4113635e-04 
1.0011831e-03 4.5472449e-02 -5.8773464e-05 
-2.0235320e-04 4.7117862e-02 9.0013093e-04 
2.9487401e-03 4.5790752e-02 2.4312645e-05 
2.8578135e-03 4.5867185e-02 -8.5831583e-05 
1.1244246e-03 4.5497378e-02 -2.8791863e-05 
2.7544310e-03 4.5947181e-02 -1.5128178e-04 
2.6389019e-03 4.6029749e-02 -2.2156073e-04 
-2.0572441e-04 4.7053034e-02 1.0675601e-03 
2.5116319e-03 4.6113821e-02 -2.9129327e-04 
2.3731305e-03 4.6198620e-02 -3.6107707e-04 
1.2412210e-03 4.5530980e-02 1.3974707e-05 
-1.9938100e-04 4.6874330e-02 2.3504239e-04 
-8.2954683e-05 4.5898545e-02 5.8707786e-05 
2.2240185e-03 4.6282357e-02 -4.3069519e-04 
4.2600853e-05 4.5942728e-02 2.7412454e-05 
1.7554350e-04 4.5887270e-02 -2.9534729e-05 
1.3500459e-03 4.5586451e-02 5.6688326e-05 
2.0650335e-03 4.6367142e-02 -5.0157106e-04 
3.1408499e-04 4.5853595e-02 -6.5634718e-05 
4.5641013e-04 4.5828543e-02 -9.2779934e-05 
1.8970336e-03 4.6440682e-02 -5.6064882e-04 
1.6951490e-04 4.8573422e-02 3.2083132e-04 
5.0186232e-05 4.8421310e-02 4.3056485e-04 
-5.0704140e-05 4.8271140e-02 4.9578190e-04 
6.0069295e-04 4.5813551e-02 -1.0741308e-04 
1.4494382e-03 4.5542180e-02 1.4471011e-04 
-1.3358971e-04 4.8124275e-02 5.6583329e-04 
-1.9903791e-04 4.7982011e-02 6.3536799e-04 
1.7209966e-03 4.6544676e-02 -7.2832850e-04 
7.4511019e-04 4.5808473e-02 -1.1028122e-04 
-2.4776367e-04 4.7845901e-02 7.0498283e-04 
8.8785296e-04 4.5813336e-02 -1.0123175e-04 
-2.8064310e-04 4.7716437e-02 7.7445928e-04 
1.5380151e-03 4.6519636e-02 1.0562102e-04 
-2.9872504e-04 4.7597931e-02 8.4521378e-04 
1.0271369e-03 4.5828131e-02 -8.0248028e-05 
-3.0323862e-04 4.7480206e-02 9.0420476e-04 
3.0268511e-03 4.6074572e-02 2.0015483e-05 
2.9400556e-03 4.6158786e-02 -9.0215780e-05 
1.1612119e-03 4.5853021e-02 -4.8488689e-05 
2.8397531e-03 4.6246624e-02 -1.5570923e-04 
2.7262581e-03 4.6337034e-02 -2.2602662e-04 
2.5999842e-03 4.6428876e-02 -2.9578805e-04 
-2.9559452e-04 4.7406826e-02 1.0716324e-03 
2.4614546e-03 4.6521301e-02 -3.6559174e-04 
1.2883714e-03 4.5886585e-02 -3.0776803e-06 
-2.7737820e-04 4.7220313e-02 2.3902253e-04 
2.3113133e-03 4.6612435e-02 -4.3522112e-04 
-1.5108396e-04 4.6244483e-02 5.5735209e-05 
-1.4826140e-05 4.6288676e-02 1.8415931e-05 
1.2948459e-04 4.6233209e-02 -4.3590558e-05 
1.4069629e-03 4.5942023e-02 4.3106560e-05 
2.1503345e-03 4.6704305e-02 -5.0610077e-04 
2.7989641e-04 4.6199515e-02 -8.3751750e-05 
4.3443637e-04 4.6174435e-02 -1.1394261e-04 
1.9794293e-03 4.6784529e-02 -5.6517373e-04 
1.1272190e-05 4.9016162e-02 3.2487257e-04 
-1.0687144e-04 4.8852586e-02 4.3460951e-04 
5.9112651e-04 4.6159408e-02 -1.3059822e-04 
-2.0517132e-04 4.8690857e-02 4.9982850e-04 
1.5153997e-03 4.5897706e-02 1.3538415e-04 
-2.8406506e-04 4.8532423e-02 5.6988415e-04 
1.7996475e-03 4.6894724e-02 -7.3286213e-04 
-3.4412675e-04 4.8378675e-02 6.3942531e-04 
7.4799698e-04 4.6154290e-02 -1.3446754e-04 
-3.8608635e-04 4.8231274e-02 7.0904824e-04 
9.0309683e-04 4.6159109e-02 -1.2540800e-04 
1.6121744e-03 4.6875289e-02 1.0125310e-04 
-4.1084957e-04 4.8090828e-02 7.7853312e-04 
1.0545032e-03 4.6173857e-02 -1.0342043e-04 
-4.1951584e-04 4.7961777e-02 8.4929459e-04 
3.1130056e-03 4.6342115e-02 1.5707447e-05 
3.0304367e-03 4.6434746e-02 -9.4620667e-05 
-4.1339172e-04 4.7834074e-02 9.0828736e-04 
2.9332487e-03 4.6531071e-02 -1.6016162e-04 
1.2003299e-03 4.6198700e-02 -6.9688271e-05 
2.8217559e-03 4.6629971e-02 -2.3052052e-04 
2.6963728e-03 4.6730240e-02 -3.0031222e-04 
-3.9399707e-04 4.7751422e-02 1.0757220e-03 
2.5576291e-03 4.6830948e-02 -3.7013561e-04 
1.3387356e-03 4.6232218e-02 -2.1366983e-05 
2.4061854e-03 4.6930134e-02 -4.3977479e-04 
-3.6306137e-04 4.7556450e-02 2.4299761e-04 
-2.2596106e-04 4.6580541e-02 5.2195709e-05 
-7.8008839e-05 4.6624741e-02 8.3869267e-06 
7.8699276e-05 4.6569255e-02 -5.9053382e-05 
1.4679331e-03 4.6287615e-02 2.8623485e-05 
2.2428475e-03 4.7029733e-02 -5.1065580e-04 
2.4203390e-04 4.6535532e-02 -1.0355991e-04 
4.0985255e-04 4.6510414e-02 -1.3699268e-04 
2.0685772e-03 4.7117259e-02 -5.6972116e-04 
-1.5877801e-04 4.9457551e-02 3.2892558e-04 
1.5862006e-03 4.6243244e-02 1.2556081e-04 
5.8001533e-04 4.6495342e-02 -1.5578144e-04 
-2.7587745e-04 4.9281661e-02 4.3865178e-04 
-3.7164706e-04 4.9107514e-02 5.0386771e-04 
1.8844981e-03 4.7234237e-02 -7.3741453e-04 
-4.4651899e-04 4.8936638e-02 5.7392514e-04 
7.5039714e-04 4.6490173e-02 -1.6067937e-04 
-5.0106184e-04 4.8770522e-02 6.4347341e-04 
-5.3600737e-04 4.8610938e-02 7.1310788e-04 
1.6918947e-03 4.7220944e-02 9.6859879e-05 
9.1889728e-04 4.6494937e-02 -1.5155613e-04 
-5.5227839e-04 4.8458620e-02 7.8260692e-04 
1.0834473e-03 4.6509627e-02 -1.2843200e-04 
-5.5101501e-04 4.8318149e-02 8.5338285e-04 
3.2078546e-03 4.6592945e-02 1.1382207e-05 
3.1296124e-03 4.6694663e-02 -9.9055414e-05 
-5.3359589e-04 4.8179626e-02 9.1238530e-04 
1.2420179e-03 4.6534413e-02 -9.2516869e-05 
3.0355806e-03 4.6800148e-02 -1.6464911e-04 
2.9260662e-03 4.6908224e-02 -2.3505304e-04 
2.8014751e-03 4.7017611e-02 -3.0487622e-04 
-5.0165120e-04 4.8086916e-02 1.0798393e-03 
2.6623335e-03 4.7127302e-02 -3.7471845e-04 
1.3926257e-03 4.6567874e-02 -4.0999029e-05 
2.5093088e-03 4.7235241e-02 -4.4436476e-04 
-4.5706402e-04 4.7882770e-02 2.4696891e-04 
-3.0812118e-04 4.6906738e-02 4.8038119e-05 
-1.4738512e-04 4.6950936e-02 -2.7663853e-06 
1.5333408e-03 4.6623220e-02 1.3159362e-05 
2.2845074e-05 4.6895419e-02 -7.6047079e-05 
2.3432303e-03 4.7343259e-02 -5.1524309e-04 
2.0024795e-04 4.6861655e-02 -1.2520677e-04 
2.1651058e-03 4.7438758e-02 -5.7429624e-04 
3.8249958e-04 4.6836487e-02 -1.6209377e-04 
1.6622963e-03 4.6578789e-02 1.1519219e-04 
5.6728818e-04 4.6821357e-02 -1.8313507e-04 
-3.4150334e-04 4.9898212e-02 3.3299043e-04 
-4.5770606e-04 4.9709119e-02 4.4268780e-04 
-5.5101826e-04 4.9521652e-02 5.0789465e-04 
1.9761330e-03 4.7563153e-02 -7.4198801e-04 
-6.2185377e-04 4.9337419e-02 5.7795123e-04 
7.5232489e-04 4.6816125e-02 -1.8909080e-04 
-6.7075929e-04 4.9158001e-02 6.4750814e-04 
1.7777013e-03 4.7556581e-02 9.2433205e-05 
-6.9845028e-04 4.8985285e-02 7.1715932e-04 
9.3535176e-04 4.6820822e-02 -1.7984530e-04 
-7.0584889e-04 4.8820139e-02 7.8668077e-04 
1.1141479e-03 4.6835444e-02 -1.5544063e-04 
-6.9412076e-04 4.8667302e-02 8.5748175e-04 
3.3120796e-03 4.6826622e-02 7.0319573e-06 
3.2382679e-03 4.6938123e-02 -1.0353127e-04 
3.1474431e-03 4.7053471e-02 -1.6918401e-04 
1.2865343e-03 4.6860158e-02 -1.1711508e-04 
-6.6470662e-04 4.8517042e-02 9.1650512e-04 
3.0398945e-03 4.7171437e-02 -2.3963698e-04 
2.9160077e-03 4.7290672e-02 -3.0949256e-04 
-6.1934471e-04 4.8413414e-02 1.0839964e-03 
2.7762911e-03 4.7410086e-02 -3.7935173e-04 
1.4503786e-03 4.6893551e-02 -6.2091285e-05 
2.6214055e-03 4.7527525e-02 -4.4900088e-04 
-5.6007946e-04 4.8199311e-02 2.5093640e-04 
-3.9814806e-04 4.7223088e-02 4.3203636e-05 
-2.2343143e-04 4.7267276e-02 -1.5148473e-05 
1.6036007e-03 4.6948832e-02 -3.3741011e-06 
2.4521919e-03 4.7644705e-02 -5.1987033e-04 
-3.8450150e-05 4.7211713e-02 -9.4712615e-05 
1.5426772e-04 4.7177893e-02 -1.4886062e-04 
2.2696963e-03 4.7748900e-02 -5.7890423e-04 
3.5220503e-04 4.7152661e-02 -1.8943289e-04 
1.7441794e-03 4.6904331e-02 1.0422518e-04 
5.5286825e-04 4.7137460e-02 -2.1285642e-04 
-5.3780943e-04 5.0338772e-02 3.3706384e-04 
2.0751872e-03 4.7881396e-02 -7.4658391e-04 
-6.5326798e-04 5.0135553e-02 4.4670962e-04 
-7.4421063e-04 4.9933834e-02 5.1190031e-04 
-8.1101594e-04 4.9735289e-02 5.8195343e-04 
7.5379632e-04 4.7132152e-02 -2.1990113e-04 
-8.5418723e-04 4.9541589e-02 6.5152175e-04 
1.8701640e-03 4.7882180e-02 8.7963893e-05 
-8.7439945e-04 4.9354735e-02 7.2119714e-04 
9.5256663e-04 4.7136768e-02 -2.1046886e-04 
-8.7254960e-04 4.9175743e-02 7.9075248e-04 
1.1467991e-03 4.7151306e-02 -1.8462623e-04 
-8.4980691e-04 4.9009519e-02 8.6159319e-04 
3.4263891e-03 4.7042706e-02 2.6466566e-06 
3.3571140e-03 4.7164709e-02 -1.0806235e-04 
3.2695569e-03 4.7290647e-02 -1.7378167e-04 
1.3341591e-03 4.7175936e-02 -1.4364234e-04 
-8.0765789e-04 4.8846524e-02 9.2065315e-04 
3.1639770e-03 4.7419244e-02 -2.4428812e-04 
3.0407229e-03 4.7549087e-02 -3.1417648e-04 
-7.4794136e-04 4.8731039e-02 1.0882068e-03 
2.9002675e-03 4.7679002e-02 -3.8404933e-04 
1.5123592e-03 4.7209243e-02 -8.4776282e-05 
2.7432464e-03 4.7806732e-02 -4.5369482e-04 
-6.7286784e-04 4.8506115e-02 2.5489837e-04 
-4.9668010e-04 4.7529610e-02 3.7623951e-05 
-3.0666839e-04 4.7573777e-02 -2.8879887e-05 
1.6791618e-03 4.7264444e-02 -2.1076061e-05 
2.5704956e-03 4.7933868e-02 -5.2454629e-04 
-1.0559301e-04 4.7518148e-02 -1.1521318e-04 
1.0379722e-04 4.7484255e-02 -1.7471723e-04 
2.3830861e-03 4.8047541e-02 -5.8355064e-04 
3.1878050e-04 4.7458942e-02 -2.1922855e-04 
1.8323833e-03 4.7219861e-02 9.2600128e-05 
5.3667194e-04 4.7443656e-02 -2.4517665e-04 
2.1823510e-03 4.8188884e-02 -7.5120245e-04 
-7.4863235e-04 5.0779847e-02 3.4113764e-04 
-8.6350200e-04 5.0561555e-02 4.5070376e-04 
-9.5218045e-04 5.0344626e-02 5.1587019e-04 
7.5482975e-04 4.7438256e-02 -2.5334405e-04 
-1.0149894e-03 5.0130786e-02 5.8591753e-04 
1.9699017e-03 4.8197713e-02 8.3441341e-05 
-1.0523609e-03 4.9921787e-02 6.5550179e-04 
9.7065913e-04 4.7442778e-02 -2.4365317e-04 
-1.0648978e-03 4.9719743e-02 7.2521193e-04 
-1.0534391e-03 4.9525819e-02 7.9481686e-04 
1.1816142e-03 4.7457216e-02 -2.1619854e-04 
-1.0191269e-03 4.9345113e-02 8.6571718e-04 
3.5515126e-03 4.7240772e-02 -1.7869751e-06 
3.4868804e-03 4.7374014e-02 -1.1266665e-04 
1.3851987e-03 4.7481744e-02 -1.7228348e-04 
3.4026634e-03 4.7511284e-02 -1.7846138e-04 
3.2990748e-03 4.7651270e-02 -2.4902611e-04 
-9.6346873e-04 4.9168301e-02 9.2483508e-04 
3.1764053e-03 4.7792505e-02 -3.1894685e-04 
3.0350689e-03 4.7933734e-02 -3.8882825e-04 
1.5789649e-03 4.7514949e-02 -1.0920653e-04 
-8.8838925e-04 4.9039928e-02 1.0924856e-03 
2.8756512e-03 4.8072590e-02 -4.5846077e-04 
-7.9626468e-04 4.8803233e-02 2.5885094e-04 
-6.0441842e-04 4.7826323e-02 3.1218756e-05 
1.7605125e-03 4.7570048e-02 -4.0059809e-05 
-3.9766828e-04 4.7870454e-02 -4.4101981e-05 
2.6989603e-03 4.8210529e-02 -5.2928141e-04 
-1.7903148e-04 4.7814736e-02 -1.3774134e-04 
4.8509490e-05 4.7780750e-02 -2.0300928e-04 
2.5060730e-03 4.8334520e-02 -5.8824167e-04 
2.8201758e-04 4.7755338e-02 -2.5174211e-04 
1.9274881e-03 4.7525369e-02 8.0248966e-05 
5.1860696e-04 4.7739949e-02 -2.8037342e-04 
2.2983752e-03 4.8485517e-02 -7.5584281e-04 
-9.7492780e-04 5.1222023e-02 3.4519694e-04 
-1.0893631e-03 5.0987701e-02 4.5464952e-04 
-1.1759030e-03 5.0754595e-02 5.1978277e-04 
7.5544623e-04 4.7734443e-02 -2.8970073e-04 
-1.2347850e-03 5.0524462e-02 5.8982274e-04 
2.0775885e-03 4.8503144e-02 7.8852997e-05 
-1.2663347e-03 5.0299118e-02 6.5942989e-04 
9.8976012e-04 4.7738854e-02 -2.7967017e-04 
-1.2710421e-03 5.0080787e-02 7.2918925e-04 
-1.2496451e-03 4.9870789e-02 7.9886473e-04 
1.2188298e-03 4.7753177e-02 -2.5040849e-04 
-1.2032169e-03 4.9674429e-02 8.6985111e-04 
3.6881918e-03 4.7420428e-02 -6.2867394e-06 
3.6283061e-03 4.7565648e-02 -1.1736726e-04 
3.5475152e-03 4.7714996e-02 -1.8324758e-04 
1.4399916e-03 4.7777584e-02 -2.0325797e-04 
3.4459657e-03 4.7867139e-02 -2.5387561e-04 
-1.1332501e-03 4.9482626e-02 9.2905550e-04 
3.3238647e-03 4.8020567e-02 -3.2382722e-04 
3.1815370e-03 4.8173948e-02 -3.9370966e-04 
1.6506329e-03 4.7810664e-02 -1.3556151e-04 
-1.0417304e-03 4.9340240e-02 1.0968490e-03 
3.0194867e-03 4.8324805e-02 -4.6331630e-04 
-9.3119130e-04 4.9090723e-02 2.6278744e-04 
-7.2213724e-04 4.8113242e-02 2.3892447e-05 
1.8481871e-03 4.7865638e-02 -6.0457363e-05 
2.8384622e-03 4.8474446e-02 -5.3408850e-04 
-4.9706550e-04 4.8157320e-02 -6.0983343e-05 
-2.5926466e-04 4.8101484e-02 -1.6252894e-04 
-1.1961629e-05 4.8067381e-02 -2.3401964e-04 
2.6395192e-03 4.8609659e-02 -5.9298466e-04 
2.4168185e-04 4.8041851e-02 -2.8729380e-04 
2.0301267e-03 4.7820845e-02 6.7092750e-05 
2.4240768e-03 4.8771183e-02 -7.6050319e-04 
4.9856941e-04 4.8026343e-02 -3.1878876e-04 
-1.2176563e-03 5.1665827e-02 3.4921772e-04 
-1.3318064e-03 5.1414526e-02 4.5851686e-04 
7.5566999e-04 4.8020716e-02 -3.2931824e-04 
-1.4163564e-03 5.1164284e-02 5.2360758e-04 
2.1939596e-03 4.8798432e-02 7.4183620e-05 
-1.4714258e-03 5.0916861e-02 5.9363995e-04 
-1.4971900e-03 5.0674118e-02 6.6328018e-04 
1.0100180e-03 4.8025002e-02 -3.1885518e-04 
-1.4939747e-03 5.0438374e-02 7.3310817e-04 
1.2587129e-03 4.8039193e-02 -2.8756402e-04 
-1.4623611e-03 5.0211107e-02 8.0288169e-04 
-1.4032979e-03 4.9997847e-02 8.7398864e-04 
3.8371699e-03 4.7581330e-02 -1.0876558e-05 
3.7821280e-03 4.7739262e-02 -1.2219385e-04 
3.7048639e-03 4.7901422e-02 -1.8817122e-04 
1.4989171e-03 4.8063460e-02 -2.3683306e-04 
3.6054327e-03 4.8066485e-02 -2.5886761e-04 
-1.3182121e-03 4.9789784e-02 9.3331703e-04 
3.4839262e-03 4.8232910e-02 -3.2884705e-04 
3.3405423e-03 4.8399298e-02 -3.9872005e-04 
1.7278497e-03 4.8096391e-02 -1.6405740e-04 
-1.2091116e-03 4.9632153e-02 1.1013147e-03 
3.1756625e-03 4.8563062e-02 -4.6828346e-04 
1.9427761e-03 4.8151208e-02 -8.2425863e-05 
-1.0786679e-03 4.9368648e-02 2.6669766e-04 
2.9899345e-03 4.8725352e-02 -5.3898372e-04 
-8.5069784e-04 4.8390383e-02 1.5529774e-05 
-6.0557096e-04 4.8434387e-02 -7.9728511e-05 
-3.4685676e-04 4.8378397e-02 -1.8986068e-04 
2.7843550e-03 4.8872754e-02 -5.9778893e-04 
-7.8033611e-05 4.8344152e-02 -2.6809957e-04 
2.1409943e-03 4.8106279e-02 5.3038207e-05 
1.9750414e-04 4.8318484e-02 -3.2628483e-04 
2.5603464e-03 4.9045753e-02 -7.6518127e-04 
4.7643938e-04 4.8302842e-02 -3.6085369e-04 
-1.4777637e-03 5.2111697e-02 3.5316378e-04 
-1.5917660e-03 5.1842497e-02 4.6226399e-04 
7.5552896e-04 4.8297081e-02 -3.7263509e-04 
2.3198200e-03 4.9083530e-02 6.9414260e-05 
-1.6745005e-03 5.1574195e-02 5.2730315e-04 
-1.7259275e-03 5.1308512e-02 5.9732988e-04 
-1.7460186e-03 5.1047324e-02 6.6701765e-04 
1.0316038e-03 4.8301228e-02 -3.6163149e-04 
-1.7348715e-03 5.0793029e-02 7.3693974e-04 
1.3015700e-03 4.8315272e-02 -3.2805219e-04 
-1.6928401e-03 5.0547259e-02 8.0684664e-04 
3.9991770e-03 4.7723212e-02 -1.5588394e-05 
-1.6206755e-03 5.0315782e-02 8.7811840e-04 
3.9490643e-03 4.7894562e-02 -1.2718430e-04 
3.8754436e-03 4.8070245e-02 -1.9327138e-04 
1.5624079e-03 4.8339378e-02 -2.7334197e-04 
3.7782486e-03 4.8248965e-02 -2.6404096e-04 
-1.5196704e-03 5.0090095e-02 9.3761918e-04 
3.6574168e-03 4.8429178e-02 -3.3404326e-04 
3.5129732e-03 4.8609430e-02 -4.0389271e-04 
1.8111647e-03 4.8372134e-02 -1.9496072e-04 
-1.3917976e-03 4.9915868e-02 1.1059003e-03 
3.3451251e-03 4.8787030e-02 -4.7339021e-04 
2.0449395e-03 4.8426759e-02 -1.0615639e-04 
3.1543661e-03 4.8962958e-02 -5.4398790e-04 
-1.2398297e-03 4.9637078e-02 2.7056687e-04 
-9.9106705e-04 4.8657752e-02 5.9901154e-06 
-7.2399205e-04 4.8701657e-02 -1.0058967e-04 
-4.4245670e-04 4.8645472e-02 -2.2009243e-04 
2.9415820e-03 4.9123581e-02 -6.0266693e-04 
-1.5019244e-04 4.8611058e-02 -3.0569354e-04 
2.2608602e-03 4.8381668e-02 3.7973058e-05 
1.4916779e-04 4.8585233e-02 -3.6922755e-04 
2.7081552e-03 4.9309082e-02 -7.6987487e-04 
4.5207435e-04 4.8569444e-02 -4.0712195e-04 
2.4560550e-03 4.9358381e-02 6.4520834e-05 
7.5505530e-04 4.8563541e-02 -4.2021624e-04 
-1.7561559e-03 5.2559935e-02 3.5698316e-04 
-1.8701279e-03 5.2271979e-02 4.6583462e-04 
-1.9512491e-03 5.1984755e-02 5.3081459e-04 
-1.9992718e-03 5.1699898e-02 6.0084109e-04 
1.0547191e-03 4.8567542e-02 -4.0854419e-04 
-2.0138993e-03 5.1419258e-02 6.7059626e-04 
-1.9949237e-03 5.1145287e-02 7.4064518e-04 
1.3477612e-03 4.8581426e-02 -3.7236942e-04 
-1.9423834e-03 5.0879757e-02 8.1072998e-04 
4.1749112e-03 4.7845917e-02 -2.0464470e-05 
4.1297949e-03 4.8031345e-02 -1.3238662e-04 
-1.8567381e-03 5.0628686e-02 8.8222216e-04 
4.0599508e-03 4.8221209e-02 -1.9859696e-04 
1.6309676e-03 4.8605352e-02 -3.1320881e-04 
3.9651559e-03 4.8414279e-02 -2.6944401e-04 
3.8451474e-03 4.8609034e-02 -3.3946184e-04 
-1.7390535e-03 5.0383909e-02 9.4195671e-04 
3.6997215e-03 4.8803992e-02 -4.0926940e-04 
1.9012098e-03 4.8637906e-02 -2.2860683e-04 
-1.5911854e-03 5.0191611e-02 1.1106226e-03 
3.5288480e-03 4.8996362e-02 -4.7867214e-04 
2.1554256e-03 4.8692295e-02 -1.3188598e-04 
3.3327971e-03 4.9186953e-02 -5.4912826e-04 
-1.4159479e-03 4.9896085e-02 2.7437457e-04 
-1.1443422e-03 4.8915351e-02 -4.9000047e-06 
-8.5326020e-04 4.8959125e-02 -1.2388221e-04 
-5.4682564e-04 4.8902698e-02 -2.5367593e-04 
3.1122758e-03 4.9361891e-02 -6.0763585e-04 
-2.2901693e-04 4.8868086e-02 -3.4737257e-04 
2.3905850e-03 4.8647014e-02 2.1759681e-05 
9.6290669e-05 4.8842088e-02 -4.1678613e-04 
2.8685642e-03 4.9561003e-02 -7.7458327e-04 
4.2529990e-04 4.8826147e-02 -4.5831550e-04 
2.6036433e-03 4.9622925e-02 5.9472153e-05 
7.5428585e-04 4.8820101e-02 -4.7280027e-04 
-2.0536673e-03 5.3010660e-02 3.6060384e-04 
-2.1676957e-03 5.2703185e-02 4.6915500e-04 
-2.2474353e-03 5.2396280e-02 5.3407130e-04 
-2.2923729e-03 5.2091431e-02 6.0410793e-04 
1.0796061e-03 4.8823955e-02 -4.6030568e-04 
-2.3018681e-03 5.1790408e-02 6.7395704e-04 
-2.2753139e-03 5.1495676e-02 7.4417392e-04 
1.3977183e-03 4.8837675e-02 -4.2116234e-04 
-2.2123249e-03 5.1209130e-02 8.1449151e-04 
4.3650163e-03 4.7949438e-02 -2.5559705e-05 
4.3249364e-03 4.8149532e-02 -1.3786084e-04 
1.7051954e-03 4.8861407e-02 -3.5698224e-04 
4.2590182e-03 4.8354156e-02 -2.0420858e-04 
-2.1129505e-03 5.0937043e-02 8.8627261e-04 
4.1668413e-03 4.8562192e-02 -2.7513647e-04 
4.0478889e-03 4.8772183e-02 -3.4515975e-04 
-1.9779078e-03 5.0671614e-02 9.4631729e-04 
3.9016626e-03 4.8982644e-02 -4.1490240e-04 
1.9987267e-03 4.8893729e-02 -2.6542499e-04 
3.7278167e-03 4.9190707e-02 -4.8417460e-04 
-1.8088216e-03 5.0459629e-02 1.1154953e-03 
2.2750976e-03 4.8947836e-02 -1.5991385e-04 
3.5263123e-03 4.9397007e-02 -5.5444063e-04 
-1.6084556e-03 5.0145740e-02 2.7809289e-04 
-1.3117842e-03 4.9163161e-02 -1.7356653e-05 
-9.9446858e-04 4.9206770e-02 -1.5000528e-04 
3.2975871e-03 4.9587411e-02 -6.1271990e-04 
-6.6087512e-04 4.9150048e-02 -2.9119130e-04 
-3.1521251e-04 4.9115210e-02 -3.9387859e-04 
2.5311424e-03 4.8902328e-02 4.2266340e-06 
3.8399916e-05 4.9089030e-02 -4.6983054e-04 
3.0427338e-03 4.9801334e-02 -7.7930913e-04 
3.9589630e-04 4.9072942e-02 -5.1538494e-04 
2.7636739e-03 4.9877099e-02 5.4227172e-05 
7.5326254e-04 4.9066765e-02 -5.3136210e-04 
-2.3710222e-03 5.3463739e-02 3.6392892e-04 
-2.4851496e-03 5.3136124e-02 4.7213106e-04 
-2.5637686e-03 5.2808927e-02 5.3698474e-04 
-2.6060354e-03 5.2483410e-02 6.0704875e-04 
1.1065613e-03 4.9070485e-02 -5.1785629e-04 
-2.6108785e-03 5.2161194e-02 6.7702633e-04 
-2.5771825e-03 5.1844703e-02 7.4746155e-04 
1.4519706e-03 4.9084046e-02 -4.7528209e-04 
-2.5040073e-03 5.1535920e-02 8.1807796e-04 
4.5700537e-03 4.8033964e-02 -3.0944199e-05 
4.5350125e-03 4.8249206e-02 -1.4368095e-04 
4.4731838e-03 4.8469058e-02 -2.1018036e-04 
1.7858195e-03 4.9107579e-02 -4.0538026e-04 
-2.3908438e-03 5.1241366e-02 8.9023049e-04 
4.3839041e-03 4.8692567e-02 -2.8119126e-04 
4.2663423e-03 4.8918389e-02 -3.5120695e-04 
-2.2379026e-03 5.0953630e-02 9.5067834e-04 
4.1196285e-03 4.9145078e-02 -4.2085667e-04 
2.1046041e-03 4.9139644e-02 -3.0597168e-04 
3.9430090e-03 4.9369717e-02 -4.8995519e-04 
-2.0464223e-03 5.0720191e-02 1.1205255e-03 
2.4049695e-03 4.9193416e-02 -1.9062286e-04 
3.7360291e-03 4.9592774e-02 -5.5997223e-04 
-1.8189812e-03 5.0386103e-02 2.8168444e-04 
-1.4948622e-03 4.9401146e-02 -3.1651078e-05 
-1.1489233e-03 4.9444547e-02 -1.7946853e-04 
3.4987416e-03 4.9799846e-02 -6.1795334e-04 
-7.8571912e-04 4.9387472e-02 -3.3338985e-04 
2.6836501e-03 4.9147643e-02 -1.4842599e-05 
-4.0965768e-04 4.9352386e-02 -4.4618251e-04 
3.2319351e-03 5.0029874e-02 -7.8406154e-04 
-2.5102710e-05 4.9326028e-02 -5.2950739e-04 
3.6358025e-04 4.9309813e-02 -5.7958868e-04 
2.9373680e-03 5.0120842e-02 4.8731209e-05 
7.5203275e-04 4.9303537e-02 -5.9719512e-04 
-2.7087877e-03 5.3918714e-02 3.6683153e-04 
-2.8229961e-03 5.3570533e-02 4.7464592e-04 
-2.9007831e-03 5.3222638e-02 5.3944683e-04 
1.1359551e-03 4.9307154e-02 -5.8244354e-04 
-2.9409019e-03 5.2875974e-02 6.0956469e-04 
-2.9417528e-03 5.2531931e-02 6.7971438e-04 
-2.9015858e-03 5.2192820e-02 7.5042790e-04 
1.5111802e-03 4.9320583e-02 -5.3585540e-04 
-2.8187509e-03 5.1860654e-02 8.2142025e-04 
4.7904695e-03 4.8099940e-02 -3.6705499e-05 
4.7604185e-03 4.8330672e-02 -1.4993652e-04 
1.8737442e-03 4.9343922e-02 -4.5934878e-04 
4.7028534e-03 4.8566068e-02 -2.1660155e-04 
-2.6919988e-03 5.1542186e-02 8.9404089e-04 
4.6168183e-03 4.8805406e-02 -2.8769625e-04 
4.5011013e-03 4.9047516e-02 -3.5768838e-04 
-2.5208320e-03 5.1230407e-02 9.5500268e-04 
2.2199293e-03 4.9375714e-02 -3.5097412e-04 
4.3543746e-03 4.9291044e-02 -4.2721233e-04 
4.1753682e-03 4.9533065e-02 -4.9608670e-04 
-2.3058960e-03 5.0973582e-02 1.1257091e-03 
2.5462558e-03 4.9429095e-02 -2.2450769e-04 
3.9630817e-03 4.9773903e-02 -5.6578519e-04 
-2.0493907e-03 5.0617215e-02 2.8509941e-04 
-1.6953120e-03 4.9629235e-02 -4.8125887e-05 
-1.3182124e-03 4.9672382e-02 -2.1292677e-04 
3.7170366e-03 4.9998884e-02 -6.2338451e-04 
-9.2274452e-04 4.9614893e-02 -3.8124924e-04 
2.8494101e-03 4.9383015e-02 -3.5724307e-05 
-5.1346685e-04 4.9579546e-02 -5.0555929e-04 
3.4375623e-03 5.0246407e-02 -7.8886032e-04 
-9.4987799e-05 4.9553029e-02 -5.9733141e-04 
3.2797986e-04 4.9536734e-02 -6.5259520e-04 
3.1261062e-03 5.0354103e-02 4.2910773e-05 
7.5064963e-04 4.9530418e-02 -6.7201711e-04 
-3.0673197e-03 5.4374718e-02 3.6914995e-04 
-3.1815106e-03 5.4005796e-02 4.7655853e-04 
-3.2587767e-03 5.3637064e-02 5.4132956e-04 
1.1682570e-03 4.9533996e-02 -6.5572431e-04 
-3.2973916e-03 5.3269043e-02 6.1153949e-04 
-3.2951214e-03 5.2902784e-02 6.8191473e-04 
1.5761890e-03 4.9547342e-02 -6.0437608e-04 
-3.2494411e-03 5.2540388e-02 7.5297537e-04 
-3.1578109e-03 5.2183827e-02 8.2443049e-04 
5.0265572e-03 4.8148129e-02 -4.2950244e-05 
5.0013807e-03 4.8394508e-02 -1.5673391e-04 
4.9482572e-03 4.8645570e-02 -2.2357787e-04 
1.9701117e-03 4.9570516e-02 -5.2013700e-04 
4.8658870e-03 4.8900895e-02 -2.9475584e-04 
-3.0180215e-03 5.1840040e-02 8.9762883e-04 
4.7526069e-03 4.9159561e-02 -3.6470600e-04 
4.6065370e-03 4.9420377e-02 -4.3406717e-04 
2.3460569e-03 4.9602031e-02 -4.0138632e-04 
-2.8286145e-03 5.1502413e-02 9.5923275e-04 
4.4257672e-03 4.9680469e-02 -5.0266035e-04 
-2.5893698e-03 5.1220095e-02 1.1310239e-03 
2.7004367e-03 4.9654969e-02 -2.6221094e-04 
4.2085973e-03 4.9940056e-02 -5.7196065e-04 
-2.3018413e-03 5.0839079e-02 2.8827156e-04 
-1.9152137e-03 4.9847313e-02 -6.7215714e-05 
3.9538342e-03 5.0184205e-02 -6.2908097e-04 
-1.5042972e-03 4.9890155e-02 -2.5122411e-04 
-1.0737050e-03 4.9832192e-02 -4.3604408e-04 
3.0299631e-03 4.9608540e-02 -5.8773438e-05 
-6.2807409e-04 4.9796588e-02 -5.7368390e-04 
3.6611462e-03 5.0450713e-02 -7.9374209e-04 
-1.7226082e-04 4.9769961e-02 -6.7530203e-04 
2.8860162e-04 4.9753665e-02 -7.3661290e-04 
3.3314638e-03 5.0576852e-02 3.6666618e-05 
7.4917264e-04 4.9747409e-02 -7.5810450e-04 
-3.4466999e-03 5.4830370e-02 3.7068377e-04 
-3.5606708e-03 5.4440855e-02 4.7770417e-04 
-3.6377409e-03 5.4051487e-02 5.4248650e-04 
1.2040692e-03 4.9751049e-02 -7.3989408e-04 
-3.6756267e-03 5.3662239e-02 6.1284119e-04 
-3.6713507e-03 5.3273696e-02 6.8350491e-04 
1.6480813e-03 4.9764403e-02 -6.8282057e-04 
-3.6214606e-03 5.2887631e-02 7.5498800e-04 
-3.5223230e-03 5.2505863e-02 8.2699880e-04 
5.2784150e-03 4.8179683e-02 -4.9804645e-05 
5.2579124e-03 4.8441641e-02 -1.6419660e-04 
2.0763851e-03 4.9787475e-02 -5.8939251e-04 
5.2094022e-03 4.8708246e-02 -2.3123224e-04 
5.1311908e-03 4.8979465e-02 -3.0249217e-04 
-3.3705091e-03 5.2135443e-02 9.0089368e-04 
5.0210943e-03 4.9254711e-02 -3.7238053e-04 
4.8765809e-03 4.9533044e-02 -4.4153918e-04 
2.4847006e-03 4.9818732e-02 -4.5845965e-04 
-3.1632871e-03 5.1770123e-02 9.6328280e-04 
4.6949642e-03 4.9811724e-02 -5.0978931e-04 
-2.8992193e-03 5.1460019e-02 1.1364187e-03 
2.8693469e-03 4.9871182e-02 -3.0456864e-04 
4.4736642e-03 5.0090924e-02 -5.7860350e-04 
-2.5788485e-03 5.1051642e-02 2.9111258e-04 
4.2105499e-03 5.0355494e-02 -6.3513578e-04 
-2.1570916e-03 5.0055203e-02 -8.9473421e-05 
-1.7096331e-03 5.0097685e-02 -2.9544987e-04 
-1.2408449e-03 5.0039196e-02 -4.9943488e-04 
3.2271593e-03 4.9824366e-02 -8.4447361e-05 
-7.5534324e-04 5.0003364e-02 -6.5275172e-04 
3.9043685e-03 5.0642577e-02 -7.9876826e-04 
-2.5824397e-04 4.9976714e-02 -7.6604937e-04 
2.4478734e-04 4.9960549e-02 -8.3455229e-04 
3.5552545e-03 5.0789097e-02 2.9864610e-05 
7.4766869e-04 4.9954507e-02 -8.5845942e-04 
-3.8466671e-03 5.5283676e-02 3.7119237e-04 
-3.9600850e-03 5.4874110e-02 4.7789837e-04 
1.2441721e-03 4.9958369e-02 -8.3784721e-04 
-4.0372838e-03 5.4464723e-02 5.4275765e-04 
-4.0753508e-03 5.4054804e-02 6.1332645e-04 
-4.0704583e-03 5.3644322e-02 6.8434921e-04 
1.7282662e-03 4.9971875e-02 -7.7379088e-04 
-4.0180695e-03 5.3234567e-02 7.5633155e-04 
5.5459003e-03 4.8196224e-02 -5.7413172e-05 
5.5297654e-03 4.8473417e-02 -1.7246462e-04 
-3.9132341e-03 5.2827063e-02 8.2899025e-04 
5.4860192e-03 4.8755147e-02 -2.3970483e-04 
2.1944571e-03 4.9994953e-02 -6.6927851e-04 
5.4125310e-03 4.9041859e-02 -3.1104584e-04 
-3.7510037e-03 5.2428858e-02 9.0370247e-04 
5.3065316e-03 4.9333403e-02 -3.8085283e-04 
5.1647396e-03 4.9629198e-02 -4.4976873e-04 
2.6380536e-03 5.0026008e-02 -5.2382956e-04 
-3.5269935e-03 5.2033994e-02 9.6702882e-04 
4.9835467e-03 4.9926745e-02 -5.1761204e-04 
-3.2381009e-03 5.1693614e-02 1.1418004e-03 
3.0552889e-03 5.0077943e-02 -3.5266595e-04 
4.7592901e-03 5.0226268e-02 -5.8584755e-04 
4.4886337e-03 5.0512468e-02 -6.4167488e-04 
-2.8833694e-03 5.1254761e-02 2.9350398e-04 
-2.4240444e-03 5.0252641e-02 -1.1560308e-04 
-1.9373254e-03 5.0294711e-02 -3.4700820e-04 
3.4432497e-03 5.0030717e-02 -1.1333491e-04 
-1.4270594e-03 5.0235660e-02 -5.7357849e-04 
4.1690760e-03 5.0821806e-02 -8.0403539e-04 
-8.9771035e-04 5.0199669e-02 -7.4562772e-04 
-3.5468135e-04 5.0173141e-02 -8.7301416e-04 
3.7995843e-03 5.0990908e-02 2.2324050e-05 
1.9565971e-04 5.0157305e-02 -9.5022487e-04 
7.4621485e-04 5.0151706e-02 -9.7701352e-04 
-4.2665431e-03 5.5731916e-02 3.7039788e-04 
1.2895825e-03 5.0156026e-02 -9.5337138e-04 
-4.3789154e-03 5.5303308e-02 4.7694583e-04 
-4.4565475e-03 5.4875018e-02 5.4197878e-04 
-4.4958387e-03 5.4445497e-02 6.1284897e-04 
-4.4920177e-03 5.4013929e-02 6.8430438e-04 
1.8185843e-03 5.0169901e-02 -8.8068692e-04 
-4.4393114e-03 5.3580933e-02 7.5685553e-04 
5.8285831e-03 4.8199917e-02 -6.5934810e-05 
5.8163814e-03 4.8491678e-02 -1.8169280e-04 
-4.3312178e-03 5.3147546e-02 8.3024214e-04 
2.3267908e-03 5.0193159e-02 -7.6261449e-04 
5.7775098e-03 4.8787772e-02 -2.4915244e-04 
5.7093688e-03 4.9089213e-02 -3.2057604e-04 
5.6085535e-03 4.9396402e-02 -3.9028469e-04 
-4.1609314e-03 5.2720644e-02 9.0588198e-04 
5.4709440e-03 4.9709246e-02 -4.5892016e-04 
2.8089432e-03 5.0224121e-02 -5.9961912e-04 
-3.9219638e-03 5.2294429e-02 9.7029544e-04 
5.2918646e-03 5.0025630e-02 -5.2629516e-04 
3.2611810e-03 5.0275549e-02 -4.0790320e-04 
-3.6089875e-03 5.1921083e-02 1.1470141e-03 
5.0663479e-03 5.0345958e-02 -5.9386038e-04 
4.7895422e-03 5.0654907e-02 -6.4886514e-04 
-3.2189058e-03 5.1448165e-02 2.9528560e-04 
-2.7199095e-03 5.0439251e-02 -1.4650105e-04 
-2.1913302e-03 5.0480863e-02 -4.0770368e-04 
3.6810031e-03 5.0227913e-02 -1.4619061e-04 
-1.6361005e-03 5.0421246e-02 -6.6126314e-04 
4.4572934e-03 5.0988263e-02 -8.0968777e-04 
-1.0583649e-03 5.0385224e-02 -8.5602774e-04 
-4.6387149e-04 5.0359039e-02 -1.0006652e-03 
4.0669172e-03 5.1182446e-02 1.3803341e-05 
1.4005534e-04 5.0343821e-02 -1.0885817e-03 
7.4490465e-04 5.0338992e-02 -1.1188705e-03 
1.3416316e-03 5.0344105e-02 -1.0913769e-03 
-4.7051575e-03 5.6171538e-02 3.6799545e-04 
-4.8158024e-03 5.5725444e-02 4.7465684e-04 
-4.8941253e-03 5.5279939e-02 5.3999757e-04 
-4.9358032e-03 5.4832485e-02 6.1127333e-04 
1.9214461e-03 5.0358665e-02 -1.0079080e-03 
-4.9350556e-03 5.4381289e-02 6.8322960e-04 
-4.8847409e-03 5.3926079e-02 7.5639779e-04 
6.1256999e-03 4.8193544e-02 -7.5536496e-05 
6.1168470e-03 4.8498843e-02 -1.9204827e-04 
6.0828954e-03 4.8808148e-02 -2.5974744e-04 
2.4765987e-03 5.0382369e-02 -8.7303898e-04 
-4.7765733e-03 5.3467156e-02 8.3056218e-04 
6.0207661e-03 4.9123138e-02 -3.3126029e-04 
5.9263914e-03 4.9444885e-02 -4.0085894e-04 
-4.6015250e-03 5.3010986e-02 9.0720971e-04 
5.7947461e-03 4.9773935e-02 -4.6918229e-04 
3.0010276e-03 5.0413424e-02 -6.8855752e-04 
-4.3504815e-03 5.2551723e-02 9.7283942e-04 
5.6199525e-03 5.0108732e-02 -5.3603500e-04 
3.4907428e-03 5.0464406e-02 -4.7207064e-04 
5.3955092e-03 5.0450046e-02 -6.0284714e-04 
-4.0152045e-03 5.2142524e-02 1.1518179e-03 
5.1146996e-03 5.0782709e-02 -6.5692206e-04 
-3.5896281e-03 5.1631399e-02 2.9623918e-04 
-3.0494708e-03 5.0614509e-02 -1.8330658e-04 
3.9438510e-03 5.0416408e-02 -1.8397267e-04 
-2.4767073e-03 5.0655632e-02 -4.7984484e-04 
-1.8728358e-03 5.0595497e-02 -7.6607046e-04 
4.7712321e-03 5.1141902e-02 -8.1593168e-04 
-1.2414766e-03 5.0559655e-02 -9.8873452e-04 
-5.8883080e-04 5.0534138e-02 -1.1547562e-03 
4.3601526e-03 5.1364011e-02 3.9834255e-06 
7.6445281e-05 5.0519946e-02 -1.2559928e-03 
7.4386104e-04 5.0516343e-02 -1.2905865e-03 
1.4020665e-03 5.0522716e-02 -1.2581586e-03 
-5.1607764e-03 5.6598077e-02 3.6367512e-04 
-5.2687953e-03 5.6136657e-02 4.7087417e-04 
-5.3479850e-03 5.5676267e-02 5.3669852e-04 
-5.3933063e-03 5.5213225e-02 6.0849608e-04 
2.0400066e-03 5.0538404e-02 -1.1610788e-03 
-5.3979472e-03 5.4744560e-02 6.8100188e-04 
-5.3533073e-03 5.4268850e-02 7.5479285e-04 
6.4361136e-03 4.8180561e-02 -8.6384026e-05 
6.4298550e-03 4.8497968e-02 -2.0370798e-04 
2.6480686e-03 5.0562939e-02 -1.0051890e-03 
6.4007744e-03 4.8818908e-02 -2.7167694e-04 
-5.2491089e-03 5.3785354e-02 8.2972839e-04 
6.3453326e-03 4.9145810e-02 -3.4329417e-04 
6.2588081e-03 4.9480541e-02 -4.1277873e-04 
-5.0737271e-03 5.3299802e-02 9.0740388e-04 
6.1352397e-03 4.9824452e-02 -4.8076721e-04 
3.2190410e-03 5.0594380e-02 -7.9410804e-04 
-4.8148359e-03 5.2805989e-02 9.7432936e-04 
5.9674428e-03 5.0176762e-02 -5.4705657e-04 
3.7487248e-03 5.0645063e-02 -5.4742699e-04 
5.7471630e-03 5.0538849e-02 -6.1305153e-04 
-4.4604635e-03 5.2357868e-02 1.1558502e-03 
5.4654440e-03 5.0895961e-02 -6.6611521e-04 
-4.0005236e-03 5.1803756e-02 2.9606540e-04 
-3.4187143e-03 5.0777691e-02 -2.2746281e-04 
4.2360651e-03 5.0596818e-02 -2.2788157e-04 
-2.7999356e-03 5.0818332e-02 -5.6636630e-04 
-2.1435696e-03 5.0757807e-02 -8.9256520e-04 
5.1132915e-03 5.1282832e-02 -8.2304990e-04 
-1.4524737e-03 5.0722469e-02 -1.1498489e-03 
-7.3349026e-04 5.0698087e-02 -1.3426222e-03 
4.6827130e-03 5.1536093e-02 -7.5495535e-06 
2.8450414e-06 5.0685485e-02 -1.4605647e-03 
7.4326214e-04 5.0683726e-02 -1.5004840e-03 
1.4731846e-03 5.0691990e-02 -1.4616810e-03 
-5.6310416e-03 5.7006096e-02 3.5716072e-04 
-5.7352976e-03 5.6532166e-02 4.6551368e-04 
-5.8154100e-03 5.6059903e-02 5.3203917e-04 
-5.8656836e-03 5.5584350e-02 6.0447581e-04 
2.1783888e-03 5.0709412e-02 -1.3472893e-03 
-5.8783206e-03 5.5101150e-02 6.7753872e-04 
-5.8432385e-03 5.4607441e-02 7.5188547e-04 
6.7582832e-03 4.8165121e-02 -9.8632115e-05 
6.7536808e-03 4.8492791e-02 -2.1685831e-04 
2.8466432e-03 5.0735318e-02 -1.1648836e-03 
6.7292960e-03 4.8823353e-02 -2.8514371e-04 
-5.7480152e-03 5.4101075e-02 8.2749180e-04 
6.6811890e-03 4.9160052e-02 -3.5689161e-04 
6.6040434e-03 4.9505669e-02 -4.2626604e-04 
-5.5780752e-03 5.3586616e-02 9.0611351e-04 
3.4690932e-03 5.0767582e-02 -9.2059315e-04 
6.4909869e-03 4.9862541e-02 -4.9390660e-04 
6.3334763e-03 5.0230910e-02 -5.5960849e-04 
-5.3172541e-03 5.3057051e-02 9.7432151e-04 
4.0411849e-03 5.0818236e-02 -6.3677174e-04 
6.1213226e-03 5.0613065e-02 -6.2475130e-04 
-4.9488896e-03 5.2566786e-02 1.1585868e-03 
5.8429547e-03 5.0995037e-02 -6.7676820e-04 
-4.4575673e-03 5.1964184e-02 2.9435252e-04 
4.5629658e-03 5.0769975e-02 -2.7939206e-04 
-3.8351408e-03 5.0927823e-02 -2.8078822e-04 
-3.1692993e-03 5.0968048e-02 -6.7096861e-04 
5.4860469e-03 5.1411396e-02 -8.3141320e-04 
-2.4564350e-03 5.0907385e-02 -1.0465106e-03 
-1.6983787e-03 5.0873035e-02 -1.3470731e-03 
-9.0292607e-04 5.0850437e-02 -1.5735093e-03 
5.0386383e-03 5.1699446e-02 -2.1318938e-05 
-8.3281060e-05 5.0840187e-02 -1.7124885e-03 
7.4338934e-04 5.0841092e-02 -1.7589854e-03 
1.5580137e-03 5.0852085e-02 -1.7118707e-03 
-6.1129275e-03 5.7389198e-02 3.4827297e-04 
-6.2120383e-03 5.6906249e-02 4.5862257e-04 
-6.2929681e-03 5.6425821e-02 5.2609975e-04 
-6.3495001e-03 5.5941579e-02 5.9927397e-04 
2.3419650e-03 5.0872047e-02 -1.5753258e-03 
-6.3729853e-03 5.5447588e-02 6.7282909e-04 
7.0902492e-03 4.8152060e-02 -1.1241775e-04 
-6.3519376e-03 5.4939241e-02 7.4755113e-04 
7.0861781e-03 4.8487735e-02 -2.3169997e-04 
7.0661575e-03 4.8825480e-02 -3.0037094e-04 
3.0793635e-03 5.0900061e-02 -1.3592868e-03 
7.0259563e-03 4.9169397e-02 -3.7228731e-04 
-6.2717356e-03 5.4412554e-02 8.2358399e-04 
6.9597853e-03 4.9523279e-02 -4.4155982e-04 
-6.1145688e-03 5.3870384e-02 9.0290981e-04 
6.8599621e-03 4.9890631e-02 -5.0884489e-04 
3.7590268e-03 5.0933775e-02 -1.0732936e-03 
6.7166174e-03 5.0272988e-02 -5.7395154e-04 
-5.8598096e-03 5.3304296e-02 9.7223280e-04 
4.3758124e-03 5.0984846e-02 -7.4349224e-04 
6.5175224e-03 5.0673925e-02 -6.3824480e-04 
-5.4850338e-03 5.2768568e-02 1.1592897e-03 
6.2481608e-03 5.1080736e-02 -6.8924781e-04 
4.9311590e-03 5.0936959e-02 -3.4026568e-04 
-4.9679136e-03 5.2111169e-02 2.9053534e-04 
-4.3081367e-03 5.1063609e-02 -3.4555614e-04 
-3.5953515e-03 5.1103588e-02 -7.9827013e-04 
5.8922163e-03 5.1528279e-02 -8.4148296e-04 
-2.8218625e-03 5.1043217e-02 -1.2351016e-03 
-1.9882043e-03 5.1010554e-02 -1.5900159e-03 
-1.1036225e-03 5.0990627e-02 -1.8589279e-03 
5.4326796e-03 5.1855177e-02 -3.7962868e-05 
-1.8511235e-04 5.0983737e-02 -2.0244037e-03 
7.4471328e-04 5.0988382e-02 -2.0789484e-03 
1.6605552e-03 5.1003187e-02 -2.0208878e-03 
-6.6027269e-03 5.7740117e-02 3.3702649e-04 
-6.6950796e-03 5.7252297e-02 4.5045734e-04 
-6.7765269e-03 5.6768068e-02 5.1914779e-04 
2.5377151e-03 5.1026741e-02 -1.8558583e-03 
-6.8405536e-03 5.6279666e-02 5.9310653e-04 
-6.8779078e-03 5.5779414e-02 6.6697489e-04 
7.4296398e-03 4.8146815e-02 -1.2786449e-04 
7.4248043e-03 4.8487851e-02 -2.4846329e-04 
-6.8759152e-03 5.5260664e-02 7.4172542e-04 
7.4086386e-03 4.8829964e-02 -3.1761401e-04 
3.3552849e-03 5.1057840e-02 -1.5970106e-03 
7.3767868e-03 4.9178109e-02 -3.8974277e-04 
-6.8178523e-03 5.4717122e-02 8.1773227e-04 
7.3231826e-03 4.9537164e-02 -4.5891419e-04 
7.2395318e-03 4.9911954e-02 -5.2582851e-04 
4.0988346e-03 5.1093868e-02 -1.2584813e-03 
-6.6825284e-03 5.4149282e-02 8.9728230e-04 
7.1147905e-03 5.0305596e-02 -5.9033863e-04 
-6.4443037e-03 5.3546471e-02 9.6731223e-04 
4.7622894e-03 5.1146038e-02 -8.7155227e-04 
6.9347156e-03 5.0723375e-02 -6.5382307e-04 
-6.0738616e-03 5.2961950e-02 1.1569447e-03 
6.6816261e-03 5.1154456e-02 -7.0393433e-04 
5.3487880e-03 5.1099150e-02 -4.1252075e-04 
-5.5400999e-03 5.2242591e-02 2.8384535e-04 
-4.8494044e-03 5.1183357e-02 -4.2457518e-04 
6.3345948e-03 5.1634657e-02 -8.5379464e-04 
-4.0914579e-03 5.1223424e-02 -9.5395755e-04 
-3.2531302e-03 5.1164030e-02 -1.4671973e-03 
-2.3334132e-03 5.1134038e-02 -1.8905004e-03 
5.8703752e-03 5.2004842e-02 -5.8217397e-05 
-1.3437630e-03 5.1117968e-02 -2.2130064e-03 
-3.0654782e-04 5.1115757e-02 -2.4117545e-03 
7.4804129e-04 5.1125518e-02 -2.4759706e-03 
1.7861217e-03 5.1145517e-02 -2.4033335e-03 
-7.0960728e-03 5.8050940e-02 3.2376567e-04 
-7.1798739e-03 5.7562986e-02 4.4158354e-04 
-7.2613312e-03 5.7079876e-02 5.1171498e-04 
2.7746870e-03 5.1173998e-02 -2.2015289e-03 
-7.3339527e-03 5.6592426e-02 5.8640732e-04 
-7.3882621e-03 5.6091119e-02 6.6024159e-04 
7.7737025e-03 4.8155246e-02 -1.4511160e-04 
7.7666783e-03 4.8498680e-02 -2.6743970e-04 
-7.4107866e-03 5.5566999e-02 7.3444630e-04 
7.7536793e-03 4.8842058e-02 -3.3718290e-04 
3.6859808e-03 5.1209443e-02 -1.8880904e-03 
7.7304494e-03 4.9191147e-02 -4.0955779e-04 
-7.3830141e-03 5.5010982e-02 8.0968665e-04 
7.6909194e-03 4.9551925e-02 -4.7859820e-04 
7.6264932e-03 4.9930656e-02 -5.4509130e-04 
4.5011309e-03 5.1248939e-02 -1.4833200e-03 
-7.2804618e-03 5.4420437e-02 8.8864381e-04 
7.5252607e-03 5.0332290e-02 -6.0898364e-04 
-7.0721210e-03 5.3781427e-02 9.5861682e-04 
5.2126718e-03 5.1303199e-02 -1.0253657e-03 
7.3711871e-03 5.0764287e-02 -6.7172216e-04 
-6.7207031e-03 5.3144887e-02 1.1501933e-03 
7.1434149e-03 5.1218411e-02 -7.2116064e-04 
5.8257724e-03 5.1258246e-02 -4.9832041e-04 
-6.1842470e-03 5.2355533e-02 2.7325429e-04 
-5.4734400e-03 5.1284888e-02 -5.2125483e-04 
6.8159408e-03 5.1732373e-02 -8.6890492e-04 
-4.6744160e-03 5.1325631e-02 -1.1449079e-03 
-3.7669945e-03 5.1268258e-02 -1.7535174e-03 
-2.7484421e-03 5.1242283e-02 -2.2628340e-03 
6.3580848e-03 5.2150571e-02 -8.2855568e-05 
-1.6335478e-03 5.1231643e-02 -2.6528107e-03 
-4.5224956e-04 5.1235801e-02 -2.8931031e-03 
7.5476013e-04 5.1252425e-02 -2.9686250e-03 
1.9418146e-03 5.1279333e-02 -2.8763394e-03 
-7.5880025e-03 5.8313477e-02 3.0935984e-04 
-7.6613776e-03 5.7830608e-02 4.3298796e-04 
-7.7421567e-03 5.7353921e-02 5.0468481e-04 
3.0646057e-03 5.1314405e-02 -2.6268603e-03 
-7.8242902e-03 5.6872905e-02 5.7989357e-04 
-7.8985909e-03 5.6376188e-02 6.5312323e-04 
8.1193633e-03 4.8183363e-02 -1.6438318e-04 
8.1086757e-03 4.8525999e-02 -2.8903681e-04 
8.0980110e-03 4.8867388e-02 -3.5947724e-04 
4.0861587e-03 5.1355767e-02 -2.2437363e-03 
-7.9513780e-03 5.5852324e-02 7.2590853e-04 
8.0834864e-03 4.9214017e-02 -4.3209016e-04 
8.0593738e-03 4.9572919e-02 -5.0089793e-04 
-7.9629482e-03 5.5288997e-02 7.9926824e-04 
8.0172022e-03 4.9951829e-02 -5.6683817e-04 
4.9816709e-03 5.1400225e-02 -1.7555278e-03 
-7.9059694e-03 5.4679630e-02 8.7635374e-04 
7.9446913e-03 5.0357728e-02 -6.3001908e-04 
-7.7440699e-03 5.4005782e-02 9.4499576e-04 
5.7417523e-03 5.1457938e-02 -1.2094627e-03 
7.8245089e-03 5.0800691e-02 -6.9204830e-04 
-7.4311507e-03 5.3314255e-02 1.1372572e-03 
7.6329480e-03 5.1275892e-02 -7.4110685e-04 
6.3739862e-03 5.1416271e-02 -5.9971317e-04 
-6.9122280e-03 5.2446066e-02 2.5742552e-04 
7.3387980e-03 5.1824166e-02 -8.8727638e-04 
-6.1980354e-03 5.1365463e-02 -6.3962913e-04 
-5.3651276e-03 5.1407855e-02 -1.3792319e-03 
-4.3843930e-03 5.1354003e-02 -2.1067355e-03 
-3.2512952e-03 5.1333877e-02 -2.7239742e-03 
6.9029365e-03 5.2295174e-02 -1.1254186e-04 
-1.9855412e-03 5.1330687e-02 -3.1985694e-03 
-6.2764079e-04 5.1343385e-02 -3.4903552e-03 
7.6721760e-04 5.1369027e-02 -3.5785798e-03 
2.1372128e-03 5.1404967e-02 -3.4594716e-03 
-8.0730650e-03 5.8519839e-02 2.9542079e-04 
-8.1342236e-03 5.8047588e-02 4.2619821e-04 
3.4227045e-03 5.1448616e-02 -3.1478834e-03 
-8.2135498e-03 5.7582774e-02 4.9936548e-04 
-8.3059339e-03 5.7113728e-02 5.7464040e-04 
-8.4031103e-03 5.6627315e-02 6.4640242e-04 
8.4633087e-03 4.8236909e-02 -1.8612880e-04 
8.4475571e-03 4.8575436e-02 -3.1385587e-04 
4.5744339e-03 5.1497814e-02 -2.6757148e-03 
8.4383379e-03 4.8911605e-02 -3.8503697e-04 
-8.4919890e-03 5.6109546e-02 7.1655056e-04 
8.4324449e-03 4.9252489e-02 -4.5778016e-04 
8.4248795e-03 4.9606056e-02 -5.2612706e-04 
-8.5526145e-03 5.5544550e-02 7.8643935e-04 
5.5599081e-03 5.1549061e-02 -2.0826400e-03 
8.4078232e-03 4.9981450e-02 -5.9122936e-04 
-8.5557407e-03 5.4920998e-02 8.5977769e-04 
8.3693216e-03 5.0387746e-02 -6.5344731e-04 
-8.4602345e-03 5.4214549e-02 9.2509987e-04 
6.3673394e-03 5.1612054e-02 -1.4278020e-03 
8.2915807e-03 5.0837978e-02 -7.1467586e-04 
8.1488681e-03 5.1331544e-02 -7.6362829e-04 
-8.2108966e-03 5.3465487e-02 1.1158726e-03 
7.0072848e-03 5.1575508e-02 -7.1811702e-04 
7.9052331e-03 5.1913915e-02 -9.0905715e-04 
-7.7377715e-03 5.2508979e-02 2.3467429e-04 
-7.0447448e-03 5.1421744e-02 -7.8429014e-04 
-6.1892752e-03 5.1467252e-02 -1.6661554e-03 
-5.1311970e-03 5.1419079e-02 -2.5413539e-03 
-3.8642175e-03 5.1407144e-02 -3.2934652e-03 
7.5126240e-03 5.2442235e-02 -1.4754158e-04 
-2.4150778e-03 5.1414053e-02 -3.8737064e-03 
-8.3886541e-04 5.1437960e-02 -4.2288337e-03 
7.8929338e-04 5.1475344e-02 -4.3305625e-03 
2.3853864e-03 5.1522805e-02 -4.1743889e-03 
3.8689162e-03 5.1577420e-02 -3.7813618e-03 
-8.5454623e-03 5.8663218e-02 2.8460914e-04 
-8.5929383e-03 5.8207247e-02 4.2335509e-04 
-8.6701404e-03 5.7759617e-02 4.9755341e-04 
-8.7734335e-03 5.7307725e-02 5.7210644e-04 
8.8020806e-03 4.8320826e-02 -2.1122349e-04 
-8.8961789e-03 5.6836890e-02 6.4125030e-04 
8.7801140e-03 4.8651936e-02 -3.4279237e-04 
5.1743559e-03 5.1636610e-02 -3.1951716e-03 
8.7715576e-03 4.8979859e-02 -4.1459197e-04 
8.7741788e-03 4.9312109e-02 -4.8718867e-04 
-9.0268584e-03 5.6330698e-02 7.0713074e-04 
8.7840974e-03 4.9657407e-02 -5.5463837e-04 
-9.1465728e-03 5.5769599e-02 7.7145554e-04 
6.2595913e-03 5.1696867e-02 -2.4706372e-03 
8.7947278e-03 5.0026108e-02 -6.1838560e-04 
-9.2257219e-03 5.5136848e-02 8.3838249e-04 
8.7953134e-03 5.0429263e-02 -6.7909379e-04 
7.1103602e-03 5.1767368e-02 -1.6825018e-03 
-9.2198981e-03 5.4400780e-02 8.9744323e-04 
8.7688153e-03 5.0883002e-02 -7.3912525e-04 
8.6889620e-03 5.1391612e-02 -7.8801146e-04 
-9.0655080e-03 5.3592166e-02 1.0831955e-03 
7.7412436e-03 5.1738369e-02 -8.5338148e-04 
8.5164728e-03 5.2006896e-02 -9.3371258e-04 
-8.6764288e-03 5.2537522e-02 2.0299232e-04 
-8.0392243e-03 5.1449784e-02 -9.6019214e-04 
-7.1778965e-03 5.1500657e-02 -2.0156169e-03 
-6.0389549e-03 5.1460884e-02 -3.0731705e-03 
8.1949435e-03 5.2596132e-02 -1.8716224e-04 
-4.6144707e-03 5.1460298e-02 -3.9929338e-03 
-2.9408047e-03 5.1480471e-02 -4.7045090e-03 
-1.0927714e-03 5.1519111e-02 -5.1371131e-03 
8.2718267e-04 5.1571422e-02 -5.2521404e-03 
2.7043653e-03 5.1633525e-02 -5.0442263e-03 
4.4296312e-03 5.1701610e-02 -4.5435019e-03 
-8.9992021e-03 5.8738871e-02 2.8077478e-04 
-9.0321746e-03 5.8304790e-02 4.2721601e-04 
-9.1069943e-03 5.7879230e-02 5.0148277e-04 
-9.2220111e-03 5.7448903e-02 5.7419127e-04 
9.1321660e-03 4.8438594e-02 -2.4129034e-04 
9.1033089e-03 4.8759075e-02 -3.7711207e-04 
-9.3729171e-03 5.6997887e-02 6.3922043e-04 
9.0949866e-03 4.9076103e-02 -4.4911729e-04 
5.9158650e-03 5.1773333e-02 -3.8106623e-03 
9.1061875e-03 4.9397500e-02 -5.2100811e-04 
-9.5508547e-03 5.6507656e-02 6.9895420e-04 
9.1344757e-03 4.9732523e-02 -5.8687800e-04 
-9.7396288e-03 5.5955138e-02 7.5498302e-04 
9.1750501e-03 5.0092435e-02 -6.4840073e-04 
7.1094357e-03 5.1844857e-02 -2.9216179e-03 
9.2193140e-03 5.0489904e-02 -7.0661917e-04 
-9.9115574e-03 5.5317796e-02 8.1202342e-04 
7.9946389e-03 5.1925666e-02 -1.9716676e-03 
9.2525490e-03 5.0943963e-02 -7.6444339e-04 
-1.0021636e-02 5.4555400e-02 8.6048876e-04 
9.2502108e-03 5.1464061e-02 -8.1265874e-04 
-1.0000211e-02 5.3685735e-02 1.0358238e-03 
8.5923681e-03 5.1907057e-02 -1.0021593e-03 
9.1724542e-03 5.2109956e-02 -9.5940579e-04 
-9.7454007e-03 5.2523184e-02 1.5999015e-04 
-9.2112492e-03 5.1445389e-02 -1.1722633e-03 
-8.3676402e-03 5.1504378e-02 -2.4374391e-03 
-7.1454855e-03 5.1476864e-02 -3.7180390e-03 
8.9569448e-03 5.2761942e-02 -2.2880556e-04 
-5.5352316e-03 5.1490995e-02 -4.8447712e-03 
-3.5855335e-03 5.1528873e-02 -5.7191175e-03 
-1.3971120e-03 5.1586220e-02 -6.2464642e-03 
8.9038267e-04 5.1657895e-02 -6.3733321e-03 
3.1193556e-03 5.1737783e-02 -6.0927504e-03 
5.1404322e-03 5.1822557e-02 -5.4480878e-03 
-9.4282288e-03 5.8745254e-02 2.8913329e-04 
-9.4469063e-03 5.8338497e-02 4.4096358e-04 
-9.5199309e-03 5.7939267e-02 5.1371687e-04 
-9.6480488e-03 5.7533791e-02 5.8307464e-04 
9.4500529e-03 4.8591495e-02 -2.7891674e-04 
9.4143674e-03 4.8898274e-02 -4.1847658e-04 
6.8375152e-03 5.1908780e-02 -4.5251554e-03 
9.4065362e-03 4.9202215e-02 -4.8980035e-04 
-9.8298902e-03 5.7105255e-02 6.4247893e-04 
9.4269231e-03 4.9511395e-02 -5.6011886e-04 
-1.0060338e-02 5.6633487e-02 6.9381511e-04 
9.4747313e-03 4.9835423e-02 -6.2338350e-04 
9.5473558e-03 5.0186098e-02 -6.8150271e-04 
8.1439814e-03 5.1994335e-02 -3.4301377e-03 
-1.0327772e-02 5.6092362e-02 7.3868441e-04 
9.6392498e-03 5.0577137e-02 -7.3555965e-04 
-1.0609397e-02 5.5453597e-02 7.8108185e-04 
9.0462086e-03 5.2088034e-02 -2.2858993e-03 
9.7397632e-03 5.1029830e-02 -7.8923008e-04 
-1.0863739e-02 5.4667650e-02 8.1316034e-04 
9.8291005e-03 5.1558356e-02 -8.3473877e-04 
-1.1019729e-02 5.3735523e-02 9.6947126e-04 
9.5765134e-03 5.2083240e-02 -1.1552902e-03 
9.8713111e-03 5.2231548e-02 -9.8222695e-04 
-1.0963114e-02 5.2455895e-02 1.0295795e-04 
-1.0594191e-02 5.1404386e-02 -1.4250573e-03 
-9.8002666e-03 5.1475320e-02 -2.9399541e-03 
-8.4949685e-03 5.1463444e-02 -4.4894964e-03 
9.8034638e-03 5.2945093e-02 -2.6625824e-04 
-6.6665919e-03 5.1497481e-02 -5.8693442e-03 
-4.3777501e-03 5.1557117e-02 -6.9452400e-03 
-1.7614080e-03 5.1639759e-02 -7.5896267e-03 
9.9257972e-04 5.1735022e-02 -7.7260813e-03 
3.6655496e-03 5.1837878e-02 -7.3434514e-03 
6.0501580e-03 5.1940886e-02 -6.5041061e-03 
-9.8264883e-03 5.8685192e-02 3.1571721e-04 
-9.8325138e-03 5.8311012e-02 4.6769276e-04 
-9.9056969e-03 5.7941715e-02 5.3681816e-04 
9.7522241e-03 4.8777895e-02 -3.2789140e-04 
-1.0049419e-02 5.7563134e-02 6.0117793e-04 
9.7107772e-03 4.9067975e-02 -4.6878092e-04 
9.7047637e-03 4.9357040e-02 -5.3797083e-04 
7.9899571e-03 5.2044817e-02 -5.3318551e-03 
-1.0265668e-02 5.7157877e-02 6.5347233e-04 
9.7359551e-03 4.9653494e-02 -6.0547482e-04 
-1.0553998e-02 5.6704643e-02 6.9486591e-04 
9.8052151e-03 4.9967219e-02 -6.6502765e-04 
9.9122958e-03 5.0310253e-02 -7.1807265e-04 
9.4048243e-03 5.2145258e-02 -3.9779042e-03 
-1.0909273e-02 5.6174963e-02 7.2489454e-04 
1.0055289e-02 5.0696690e-02 -7.6581166e-04 
-1.1317063e-02 5.5535306e-02 7.4797746e-04 
1.0291859e-02 5.2255285e-02 -2.6031358e-03 
1.0229184e-02 5.1149003e-02 -8.1172741e-04 
-1.1745063e-02 5.4726837e-02 7.5477728e-04 
1.0422364e-02 5.1684634e-02 -8.5016212e-04 
-1.2128554e-02 5.3730189e-02 8.7964806e-04 
1.0705871e-02 5.2267121e-02 -1.2937616e-03 
1.0609042e-02 5.2381289e-02 -9.9493653e-04 
-1.2348810e-02 5.2324854e-02 2.7713307e-05 
-1.2223363e-02 5.1324202e-02 -1.7226576e-03 
-1.1520537e-02 5.1409893e-02 -3.5282614e-03 
1.0734956e-02 5.3150841e-02 -2.8729974e-04 
-1.0136690e-02 5.1418719e-02 -5.3946975e-03 
-8.0564305e-03 5.1474846e-02 -7.0796117e-03 
-5.3543352e-03 5.1565455e-02 -8.4054500e-03 
-2.1994860e-03 5.1677735e-02 -9.1982864e-03 
1.1521626e-03 5.1807016e-02 -9.3436337e-03 
4.3932405e-03 5.1934037e-02 -8.8188239e-03 
7.2276357e-03 5.2061295e-02 -7.7129823e-03 
-1.0187882e-02 5.8566906e-02 3.6645424e-04 
-1.0184693e-02 5.8230527e-02 5.0958000e-04 
-1.0261875e-02 5.7894341e-02 5.7264679e-04 
1.0035065e-02 4.8992622e-02 -3.9269835e-04 
9.9901522e-03 4.9262912e-02 -5.2967216e-04 
-1.0425457e-02 5.7543735e-02 6.3095633e-04 
9.9887177e-03 4.9535469e-02 -5.9481434e-04 
9.4414143e-03 5.2180278e-02 -6.2089454e-03 
1.0033853e-02 4.9819244e-02 -6.5815298e-04 
-1.0680945e-02 5.7160942e-02 6.7540537e-04 
1.0127939e-02 5.0124493e-02 -7.1282085e-04 
-1.1033258e-02 5.6724019e-02 7.0552619e-04 
1.0272967e-02 5.0463419e-02 -7.5956108e-04 
1.0942584e-02 5.2299028e-02 -4.5269881e-03 
-1.1485489e-02 5.6202907e-02 7.1953989e-04 
1.0470742e-02 5.0850024e-02 -7.9765123e-04 
-1.2035241e-02 5.5559589e-02 7.1573750e-04 
1.1757141e-02 5.2425857e-02 -2.8820054e-03 
1.0722724e-02 5.1306744e-02 -8.3115663e-04 
-1.2666253e-02 5.4726753e-02 6.8879359e-04 
1.1028432e-02 5.1851663e-02 -8.5367013e-04 
1.1984984e-02 5.2456859e-02 -1.3835445e-03 
-1.3331426e-02 5.3661686e-02 7.6045781e-04 
1.1379549e-02 5.2568998e-02 -9.8662656e-04 
-1.3922452e-02 5.2122769e-02 -7.2985604e-05 
-1.4133032e-02 5.1206688e-02 -2.0706223e-03 
-1.3570946e-02 5.1305997e-02 -4.2026993e-03 
1.1744464e-02 5.3383256e-02 -2.6957115e-04 
-1.2120561e-02 5.1336905e-02 -6.4281670e-03 
-9.7602989e-03 5.1423689e-02 -8.4713331e-03 
-6.5656514e-03 5.1544245e-02 -1.0107902e-02 
-2.7353640e-03 5.1708173e-02 -1.1098131e-02 
1.3904251e-03 5.1870290e-02 -1.1259483e-02 
5.3694609e-03 5.2039085e-02 -1.0539747e-02 
8.7695781e-03 5.2179606e-02 -9.0653473e-03 
-1.0506104e-02 5.8404688e-02 4.4466797e-04 
-1.0499149e-02 5.8111636e-02 5.6631940e-04 
-1.0586446e-02 5.7811824e-02 6.2180893e-04 
1.0294675e-02 4.9226608e-02 -4.7747899e-04 
1.0249947e-02 4.9473628e-02 -6.0171663e-04 
1.0257538e-02 4.9727773e-02 -6.6075235e-04 
1.1285062e-02 5.2321816e-02 -7.1136438e-03 
-1.0776391e-02 5.7490035e-02 6.7395831e-04 
1.0321665e-02 4.9998850e-02 -7.1921329e-04 
-1.1077883e-02 5.7128294e-02 7.1257106e-04 
1.0446004e-02 5.0297738e-02 -7.6862073e-04 
-1.1501611e-02 5.6704459e-02 7.3182214e-04 
1.2818964e-02 5.2452224e-02 -5.0133287e-03 
1.0634517e-02 5.0637038e-02 -8.0779763e-04 
-1.2060442e-02 5.6187596e-02 7.2758112e-04 
1.0892323e-02 5.1030773e-02 -8.3473383e-04 
-1.2767624e-02 5.5535868e-02 6.9762721e-04 
1.3462306e-02 5.2597294e-02 -3.0559765e-03 
1.1226901e-02 5.1500810e-02 -8.4759463e-04 
-1.3630471e-02 5.4674666e-02 6.1827456e-04 
1.1649845e-02 5.2062781e-02 -8.4218935e-04 
1.3402953e-02 5.2648002e-02 -1.3703242e-03 
-1.4634054e-02 5.3535349e-02 6.1109599e-04 
1.2176357e-02 5.2802115e-02 -9.4212387e-04 
-1.5703543e-02 5.1854610e-02 -2.1622909e-04 
-1.6350662e-02 5.1055107e-02 -2.4809218e-03 
-1.5980616e-02 5.1168549e-02 -4.9591353e-03 
1.2814678e-02 5.3644951e-02 -1.7684604e-04 
-1.4485741e-02 5.1213511e-02 -7.5635498e-03 
-1.1838109e-02 5.1326387e-02 -1.0006597e-02 
-8.0832798e-03 5.1508230e-02 -1.2029085e-02 
-3.4165873e-03 5.1705175e-02 -1.3298388e-02 
1.7275560e-03 5.1960701e-02 -1.3505668e-02 
6.7017433e-03 5.2135833e-02 -1.2523320e-02 
1.0817362e-02 5.2320325e-02 -1.0533786e-02 
-1.0774287e-02 5.8219070e-02 5.4753447e-04 
-1.0771109e-02 5.7975607e-02 6.3357218e-04 
1.0526610e-02 4.9466848e-02 -5.8328640e-04 
-1.0877057e-02 5.7716165e-02 6.8200622e-04 
1.0487057e-02 4.9686374e-02 -6.8289314e-04 
1.0509853e-02 4.9919395e-02 -7.3488670e-04 
1.3646462e-02 5.2459497e-02 -7.9766020e-03 
-1.1102226e-02 5.7424832e-02 7.3139699e-04 
1.0600023e-02 5.0176872e-02 -7.8893240e-04 
-1.1458424e-02 5.7083846e-02 7.6803128e-04 
1.0762273e-02 5.0470483e-02 -8.3552086e-04 
-1.1962307e-02 5.6671536e-02 7.8395599e-04 
1.1002429e-02 5.0813499e-02 -8.6798146e-04 
1.5107536e-02 5.2605076e-02 -5.3467523e-03 
-1.2637843e-02 5.6156971e-02 7.6192813e-04 
1.1328667e-02 5.1220726e-02 -8.8078842e-04 
-1.3517584e-02 5.5495632e-02 6.9831170e-04 
1.5421773e-02 5.2766840e-02 -3.0371087e-03 
1.1753159e-02 5.1714841e-02 -8.7140082e-04 
-1.4640474e-02 5.4605881e-02 5.7680927e-04 
1.2296230e-02 5.2308037e-02 -8.1486816e-04 
1.4936344e-02 5.2828519e-02 -1.1800199e-03 
-1.6041337e-02 5.3391973e-02 4.2628943e-04 
1.2997170e-02 5.3080377e-02 -8.4950477e-04 
-1.7716459e-02 5.1564533e-02 -4.4153034e-04 
-1.8887194e-02 5.0901323e-02 -2.9815967e-03 
1.3918001e-02 5.3936151e-02 4.6017547e-05 
-1.8747338e-02 5.0971878e-02 -5.7895266e-03 
-1.7238727e-02 5.1058797e-02 -8.7461601e-03 
-1.4340547e-02 5.1186731e-02 -1.1593560e-02 
-1.0012866e-02 5.1388011e-02 -1.4081912e-02 
-4.3395821e-03 5.1766191e-02 -1.5773049e-02 
2.1731122e-03 5.1992668e-02 -1.6105177e-02 
8.4896548e-03 5.2327921e-02 -1.4771595e-02 
1.3558412e-02 5.2449330e-02 -1.2050967e-02 
-1.0984818e-02 5.8036466e-02 6.6062553e-04 
-1.0994825e-02 5.7850019e-02 7.0034626e-04 
1.0725523e-02 4.9696734e-02 -7.0434951e-04 
1.0697394e-02 4.9883441e-02 -7.6714526e-04 
-1.1130367e-02 5.7636037e-02 7.4784891e-04 
1.6672301e-02 5.2605059e-02 -8.6919327e-03 
1.0743175e-02 5.0091384e-02 -8.1348627e-04 
-1.1401427e-02 5.7378240e-02 8.0176885e-04 
1.0868109e-02 5.0332791e-02 -8.6719331e-04 
-1.1821771e-02 5.7060859e-02 8.4836460e-04 
1.1077555e-02 5.0619843e-02 -9.1593107e-04 
-1.2414454e-02 5.6663964e-02 8.7027879e-04 
1.7875006e-02 5.2765417e-02 -5.4411318e-03 
1.1379346e-02 5.0966234e-02 -9.5018237e-04 
-1.3215422e-02 5.6157620e-02 8.5329706e-04 
1.1785632e-02 5.1387628e-02 -9.5037332e-04 
1.7633115e-02 5.2923360e-02 -2.7531435e-03 
-1.4278720e-02 5.5497250e-02 7.4932932e-04 
1.2313368e-02 5.1910524e-02 -9.0897114e-04 
-1.5685506e-02 5.4602692e-02 5.6586388e-04 
1.2987151e-02 5.2549916e-02 -8.0118055e-04 
1.6526268e-02 5.2983475e-02 -7.3736892e-04 
-1.7542032e-02 5.3341504e-02 3.1283454e-04 
1.3852836e-02 5.3381817e-02 -6.9913324e-04 
-1.9952816e-02 5.1391737e-02 -8.2846830e-04 
1.5028739e-02 5.4252489e-02 4.6957904e-04 
-2.1713963e-02 5.0688553e-02 -3.6143452e-03 
-2.1809661e-02 5.0761319e-02 -6.6654786e-03 
-2.0334575e-02 5.0823586e-02 -9.8889675e-03 
-1.7277551e-02 5.1003820e-02 -1.3097361e-02 
-1.2480131e-02 5.1238683e-02 -1.6074271e-02 
-5.6954488e-03 5.1540716e-02 -1.8404499e-02 
2.6849876e-03 5.2379231e-02 -1.9058887e-02 
1.1138835e-02 5.2377470e-02 -1.7233298e-02 
1.7283330e-02 5.2585190e-02 -1.3409386e-02 
1.0885029e-02 4.9896595e-02 -8.2267457e-04 
-1.1127427e-02 5.7888832e-02 7.4588819e-04 
1.0875597e-02 5.0043757e-02 -8.4236643e-04 
-1.1163895e-02 5.7769058e-02 7.5561031e-04 
1.0953659e-02 5.0221433e-02 -8.8936332e-04 
2.0454258e-02 5.2771084e-02 -9.1035381e-03 
-1.1342725e-02 5.7603990e-02 8.0834794e-04 
1.1123062e-02 5.0442814e-02 -9.5080261e-04 
-1.1669807e-02 5.7383791e-02 8.7568186e-04 
1.1389015e-02 5.0718983e-02 -1.0151006e-03 
-1.2161259e-02 5.7098012e-02 9.4396602e-04 
1.1761992e-02 5.1062680e-02 -1.0637398e-03 
2.1122803e-02 5.2897560e-02 -5.3356674e-03 
-1.2847843e-02 5.6729908e-02 9.9416854e-04 
1.2258906e-02 5.1490047e-02 -1.0781609e-03 
-1.3777742e-02 5.6251179e-02 9.9203683e-04 
2.0137204e-02 5.3043837e-02 -2.2851312e-03 
1.2906194e-02 5.2028005e-02 -1.0029860e-03 
-1.5025162e-02 5.5624532e-02 9.2802568e-04 
1.3737476e-02 5.2698270e-02 -8.1617421e-04 
-1.6708517e-02 5.4765192e-02 6.1297423e-04 
1.8252587e-02 5.3066139e-02 -3.1574979e-05 
1.4786998e-02 5.3629909e-02 -5.9735632e-04 
-1.9042748e-02 5.3630211e-02 1.3481761e-04 
1.6144842e-02 5.4562155e-02 1.1667338e-03 
-2.2413295e-02 5.1677397e-02 -1.4690484e-03 
-2.4684648e-02 5.0643201e-02 -4.3986600e-03 
-2.5047198e-02 5.0535479e-02 -7.4059331e-03 
-2.3726015e-02 5.0493794e-02 -1.0877935e-02 
-2.0619495e-02 5.0633746e-02 -1.4435703e-02 
-1.5498273e-02 5.1041356e-02 -1.7885916e-02 
-7.8426641e-03 5.2233385e-02 -2.0721734e-02 
3.2460769e-03 5.2079203e-02 -2.2332894e-02 
1.4473418e-02 5.3188331e-02 -1.9579409e-02 
2.2228507e-02 5.3087280e-02 -1.3942801e-02 
1.0995922e-02 5.0043919e-02 -8.9835403e-04 
1.1015427e-02 5.0142504e-02 -8.9822724e-04 
-1.1195578e-02 5.7829851e-02 7.5598174e-04 
-1.1276760e-02 5.7767810e-02 7.6660469e-04 
2.4668630e-02 5.3040330e-02 -9.1645668e-03 
1.1137208e-02 5.0286066e-02 -9.5192293e-04 
-1.1512601e-02 5.7648857e-02 8.5675737e-04 
1.1360078e-02 5.0483244e-02 -1.0301908e-03 
-1.1899713e-02 5.7471659e-02 9.9057515e-04 
1.1689353e-02 5.0740941e-02 -1.1229769e-03 
-1.2462254e-02 5.7232234e-02 1.1376443e-03 
1.2139266e-02 5.1070283e-02 -1.2120750e-03 
2.4557365e-02 5.3154571e-02 -5.3968428e-03 
-1.3239495e-02 5.6917877e-02 1.2769083e-03 
1.2732436e-02 5.1484765e-02 -1.2616791e-03 
-1.4290488e-02 5.6505206e-02 1.4081218e-03 
2.2993407e-02 5.3316491e-02 -2.2649102e-03 
1.3502565e-02 5.2010819e-02 -1.2463573e-03 
-1.5706991e-02 5.5966488e-02 1.4430396e-03 
1.4497034e-02 5.2667282e-02 -9.6048591e-04 
-1.7628393e-02 5.5230229e-02 1.5632907e-03 
1.9954758e-02 5.3153778e-02 7.4926281e-04 
1.5833586e-02 5.3481961e-02 -3.5426102e-04 
-2.0303686e-02 5.4314758e-02 1.2916469e-03 
1.7481002e-02 5.4804946e-02 1.9427856e-03 
-2.4191870e-02 5.2895863e-02 -2.5599007e-03 
-2.7433188e-02 4.9564176e-02 -4.2419536e-03 
-2.8529420e-02 4.9652018e-02 -7.7646187e-03 
-2.7472121e-02 4.9790891e-02 -1.1599825e-02 
-2.4403176e-02 4.9813165e-02 -1.5679888e-02 
-1.9092967e-02 4.9598509e-02 -1.9594031e-02 
-1.0561767e-02 4.9751161e-02 -2.3777636e-02 
3.7505508e-03 5.1758077e-02 -2.3988627e-02 
2.2079210e-02 5.1389447e-02 -1.9030423e-02 
3.5096897e-02 4.6931493e-02 -1.6340472e-02 
2.7560812e-02 5.1756901e-02 -1.3699843e-02 
3.1542582e-02 4.8154773e-02 -1.4358599e-02 
4.5867427e-02 4.6427621e-02 -1.2946368e-02 
1.1051572e-02 5.0100170e-02 -8.9846403e-04 
1.1114270e-02 5.0155037e-02 -8.9870843e-04 
1.1291978e-02 5.0265994e-02 -9.7901666e-04 
2.8704639e-02 5.1783617e-02 -9.5970219e-03 
3.1205901e-02 4.8386460e-02 -1.2257487e-02 
1.1572751e-02 5.0434812e-02 -1.1211337e-03 
3.3584954e-02 4.6680237e-02 -1.2060249e-02 
1.1967092e-02 5.0663223e-02 -1.2996184e-03 
-5.7999516e-04 4.5777543e-02 -1.1518273e-02 
1.2493304e-02 5.0961810e-02 -1.4988568e-03 
2.7817475e-02 5.1877626e-02 -6.3374589e-03 
2.9984175e-02 4.8750308e-02 -9.9713684e-03 
3.1873705e-02 4.6785876e-02 -1.0965794e-02 
1.3181203e-02 5.1333929e-02 -1.7240248e-03 
6.4356891e-02 4.5890651e-02 -1.1027875e-02 
2.9527299e-02 4.9092592e-02 -7.7566165e-03 
2.6116183e-02 5.1853809e-02 -3.4845607e-03 
3.1280678e-02 4.7031766e-02 -9.7167379e-03 
3.8234603e-01 4.5568602e-02 -1.1088363e-02 
1.4060919e-02 5.1835564e-02 -1.9069392e-03 
3.3699317e-02 4.5840982e-02 -1.0333196e-02 
1.5219029e-02 5.2328287e-02 -2.1894788e-03 
-6.0410652e-03 4.5392525e-02 -1.0794448e-02 
2.8903804e-02 4.9260736e-02 -5.7462369e-03 
2.9597825e-02 4.7412771e-02 -8.3589690e-03 
2.3625357e-02 5.1420734e-02 -6.3143904e-04 
3.1391176e-02 4.5933154e-02 -9.4765234e-03 
1.6534778e-02 5.3459367e-02 -2.3002480e-03 
3.2434596e-02 4.5105144e-02 -1.0195387e-02 
2.9019321e-02 4.7776375e-02 -7.0642001e-03 
2.8165019e-02 4.9315801e-02 -3.9851163e-03 
2.9231960e-02 4.6259911e-02 -8.5272746e-03 
1.8818992e-02 5.2301132e-02 1.9455822e-03 
2.5920543e-02 4.5056623e-02 -9.3784079e-03 
2.8850460e-02 4.7975516e-02 -5.8788091e-03 
2.8498227e-02 4.6708849e-02 -7.6071918e-03 
2.5432239e-02 4.5353619e-02 -8.4774429e-03 
3.2225394e-02 4.8415325e-02 -2.3183622e-03 
2.8902069e-02 4.7079664e-02 -6.8101201e-03 
2.6404723e-02 4.5913390e-02 -7.6306874e-03 
3.1836764e-02 4.7808564e-02 -4.9432817e-03 
2.7897783e-02 4.6512401e-02 -6.9918149e-03 
2.9768270e-02 4.7059825e-02 -6.2393594e-03 
2.8888075e-02 4.6786651e-02 -6.6637845e-03 
REACTION_MOMENT 3 3567  float
-3.7243794e+00 -4.0010427e+01 -2.8833667e+02 
1.1291138e+00 -2.0841047e+02 1.6221494e+02 
-1.8794768e+00 9.6467946e+00 -4.3000234e-01 
-1.4598916e+00 2.1766974e+01 -1.2040198e+00 
7.5016853e-01 -3.0990866e+02 6.1586240e+01 
-3.0607961e+00 1.8874951e+01 -4.7808368e-01 
-4.3723291e+00 4.2957566e+01 -6.4572670e-01 
1.4453789e+00 2.5698653e+01 -5.8866078e-01 
1.2603566e-02 5.0058897e+01 -4.2402693e-01 
1.2049502e+00 -3.9138798e+02 3.2474572e+01 
-3.8703390e+00 2.8381964e+01 -3.7480855e-01 
-5.8290761e+00 6.1618656e+01 -2.5465292e-01 
2.3105074e+00 3.1271927e+01 -2.5241312e-01 
-1.0567245e+00 6.9940103e+01 -1.1112957e-01 
5.4964783e+00 5.7490485e+01 6.8702583e-03 
1.0731423e+00 -5.4304348e+02 -7.4002494e+01 
-4.1089380e+00 3.7265125e+01 -3.1093396e-01 
-6.0959794e+00 7.8443477e+01 -1.0333701e-03 
1.0032565e+01 4.1308960e+01 6.8090548e-01 
6.7702902e+00 7.6536739e+01 1.1415296e-01 
1.6436227e+01 6.5067487e+01 3.8625393e-01 
-9.3871575e-01 8.5111962e+01 7.4977027e-02 
1.4782188e+02 -5.8504624e+02 -9.5792416e+01 
-3.9464706e+00 4.5095291e+01 -2.6768079e-01 
1.6778037e+01 7.9404380e+01 3.1136094e-01 
6.4316690e+00 8.9662888e+01 1.7749640e-01 
2.9483762e+01 4.7509749e+01 -1.0437368e+00 
-5.7616989e+00 9.2944415e+01 1.5504150e-01 
2.9997512e+01 6.2766190e+01 7.3921367e-01 
-7.4256545e-01 9.7545190e+01 1.8454182e-01 
1.4922957e+01 8.9833104e+01 2.6866694e-01 
2.6554895e+01 7.4193008e+01 4.0738036e-01 
5.8127598e+00 1.0009039e+02 2.2544549e-01 
2.5031727e+01 -3.5711347e-01 -4.2078779e+00 
-3.8246002e+00 5.1919656e+01 -2.4102006e-01 
4.4442227e+01 2.2074588e+01 4.7208682e+00 
-5.4530483e+00 1.0556603e+02 2.5388756e-01 
3.5914922e+01 4.7410077e+01 7.2260520e-01 
-5.2914390e-01 1.0835294e+02 2.5411201e-01 
2.1112308e+01 8.4077711e+01 3.4450478e-01 
1.2352411e+01 9.9094352e+01 2.6344857e-01 
2.7992830e+01 5.9677276e+01 6.1776785e-01 
5.0512681e+00 1.0949903e+02 2.6077344e-01 
5.0793020e+00 3.9765583e+00 -6.2651462e-01 
-3.7064389e+00 5.7813575e+01 -2.2519706e-01 
1.6728277e+01 9.3958810e+01 3.0174072e-01 
2.5589759e+01 9.8466824e+00 -1.8323898e-01 
-5.2186814e+00 1.1673059e+02 3.1989993e-01 
2.1171187e+01 7.3590326e+01 4.1026419e-01 
1.0291114e+01 1.0800976e+02 2.6941393e-01 
2.1963089e+01 2.3929865e+01 9.0392039e-01 
-4.4671998e-01 1.1823924e+02 3.0112774e-01 
1.6099457e+01 4.6626798e+01 4.8242052e-01 
4.4772870e+00 1.1849208e+02 2.8667275e-01 
1.6838355e+01 8.6662526e+01 3.2825782e-01 
1.3743046e+01 1.0400787e+02 2.7914243e-01 
-4.7328725e+00 4.5732192e+00 3.0906935e-01 
-3.5972820e+00 6.3054273e+01 -2.1573857e-01 
-2.3176536e+01 1.1916254e+01 6.5386854e-02 
1.3820414e+01 6.4841325e+01 3.8191340e-01 
-5.0290826e+00 1.2680282e+02 3.6779771e-01 
8.9150142e+00 1.1697895e+02 2.7518455e-01 
-3.8592616e-01 1.2752715e+02 3.3441633e-01 
-1.2178404e+01 2.4612589e+01 -4.6677407e-01 
1.4324900e+01 9.8710840e+01 2.9187021e-01 
4.1424727e+00 1.2730530e+02 3.0476279e-01 
-2.1357680e+00 4.6328649e+01 1.6019566e-01 
1.2370813e+01 8.0673282e+01 3.3635763e-01 
1.2010912e+01 1.1382813e+02 2.6793289e-01 
8.1813580e+00 1.2588423e+02 2.7861828e-01 
2.3713074e+00 6.4351178e+01 2.9845636e-01 
-4.2806040e+01 1.6718761e+00 4.5870835e+00 
-3.4716690e+00 6.7816232e+01 -2.1164351e-01 
-5.7232991e+01 3.3603194e+01 -4.8329627e+00 
-4.8121453e+00 1.3609176e+02 4.0377971e-01 
-3.0663029e+01 5.6300393e+01 3.7288223e-02 
1.2265266e+01 9.4549900e+01 2.9566903e-01 
1.3258398e+01 1.1004718e+02 2.6281895e-01 
-2.6787429e-01 1.3637223e+02 3.5855358e-01 
1.1255946e+01 1.2346210e+02 2.5594663e-01 
6.1904415e+00 7.9641364e+01 3.1922982e-01 
-1.4382126e+01 6.2100658e+01 1.1948653e-01 
4.0608038e+00 1.3593220e+02 3.1654915e-01 
-4.0158157e+00 7.2380026e+01 2.9929562e-01 
7.9626641e+00 1.3468752e+02 2.7767617e-01 
1.2913018e+01 1.0697884e+02 2.5553704e-01 
1.0609021e+00 -1.5029386e+02 4.7253130e+02 
-3.3175718e+00 7.2242240e+01 -2.1210773e-01 
9.3032417e+00 9.3370506e+01 2.8738880e-01 
1.3128858e+01 1.2066349e+02 2.3562819e-01 
-4.5338056e+00 1.4480440e+02 4.3129264e-01 
-6.2743776e-01 -2.9206559e+02 -1.6261809e+02 
-3.9070081e+01 4.4998663e+01 8.5943064e+00 
-3.4054999e+00 3.4111001e+00 9.9103627e+00 
-4.7716033e-02 1.4485373e+02 3.7581726e-01 
-4.7388784e-01 -1.1425725e+02 -1.1691714e+02 
-2.3980848e+01 4.1441616e+01 8.6320693e+00 
-5.4170515e-01 1.2334061e+00 6.4790893e+00 
-6.5759024e+00 2.7501193e+00 1.4877564e+01 
1.1171968e+01 1.3279995e+02 2.4160546e-01 
2.8783960e+00 8.3865067e+01 3.0464949e-01 
-2.3632565e+00 2.2047930e+00 9.9884768e+00 
3.1324498e-02 -9.6481758e+01 -9.6699347e+01 
-1.5775622e+01 3.9852739e+01 9.1409374e+00 
4.2106343e+00 1.4435566e+02 3.2294211e-01 
-2.5200334e-01 7.5810994e-01 3.8701571e+00 
-7.7866912e+00 2.5085131e+00 1.5034990e+01 
1.4031057e+01 1.1835625e+02 2.1245658e-01 
-8.5549744e-01 1.2854639e+00 5.7563948e+00 
-3.7293610e+00 2.1228152e+00 9.9270713e+00 
1.2121671e+01 1.0574996e+02 2.3562383e-01 
-2.0725356e-02 -8.4607556e+01 -7.2322461e+01 
-7.8672577e+00 4.1617838e+01 7.3154866e+00 
8.1200213e+00 1.4330107e+02 2.7261764e-01 
8.0546161e+00 9.5189264e+01 2.5775994e-01 
-1.1808880e-01 4.8607205e-01 2.0736906e+00 
-6.7925430e+00 2.4661491e+00 1.1509090e+01 
1.3593464e+01 1.3070249e+02 2.0651202e-01 
-1.6977338e+00 1.6426472e+00 5.4548811e+00 
-4.8941020e-01 8.5034037e-01 2.8819706e+00 
-3.8428258e+00 2.1312104e+00 7.2505506e+00 
-3.1366809e+00 7.6417422e+01 -2.1652159e-01 
-4.1864877e+00 1.5307550e+02 4.5228848e-01 
2.8507130e-01 1.5302108e+02 3.8759645e-01 
-2.8394823e-02 -7.8350340e+01 -5.0374206e+01 
-2.2152918e+00 4.5432176e+01 4.9805828e+00 
1.1532727e+01 1.4183088e+02 2.2415035e-01 
-9.4440674e-01 1.1062296e+00 2.2534726e+00 
-2.1180420e+00 1.7070460e+00 3.5055016e+00 
-7.3790422e-02 3.0536719e-01 8.8796935e-01 
-4.9593013e+00 2.5282004e+00 7.0243499e+00 
1.4675687e+01 1.1720189e+02 1.7810354e-01 
-3.0656903e-01 5.3242445e-01 9.5058426e-01 
-3.1724978e+00 2.1828885e+00 3.6587524e+00 
4.5508018e+00 1.5254843e+02 3.2482841e-01 
1.2134909e+01 1.0642568e+02 1.9110623e-01 
1.5391676e+01 1.2892847e+02 1.6852239e-01 
-1.2883583e+00 1.2798766e+00 5.7609115e-01 
-6.2214065e-01 7.1792160e-01 4.8857522e-02 
-2.0148051e+00 1.7878051e+00 7.7344026e-01 
1.4412207e+01 1.4023581e+02 1.7582618e-01 
-2.5394686e-02 -7.4668758e+01 -3.0199527e+01 
2.2698157e+00 5.0248180e+01 2.8664525e+00 
8.5445942e+00 1.5168443e+02 2.6390638e-01 
-4.4294747e-02 1.6203866e-01 1.5892163e-01 
-3.1656315e+00 2.6878163e+00 2.9699239e+00 
-1.9355938e-01 2.8269229e-01 -2.6884120e-01 
-2.1946829e+00 2.2868285e+00 2.8267575e-01 
-8.9351517e-01 8.4385962e-01 -1.5432038e+00 
-1.3956825e+00 1.3592949e+00 -1.5948759e+00 
-2.9325242e+00 8.0394847e+01 -2.2422368e-01 
-4.1303423e-01 3.8260394e-01 -1.3992568e+00 
-1.5956160e+00 1.8751367e+00 -1.9200986e+00 
1.5528542e+01 1.1728862e+02 1.2271608e-01 
-3.7770497e+00 1.6098942e+02 4.6815900e-01 
1.7023158e+01 1.2791400e+02 1.2077216e-01 
1.2177722e+01 1.5054280e+02 2.0412342e-01 
7.1845676e-01 1.6090385e+02 3.9491893e-01 
1.6869452e+01 1.3886890e+02 1.2463152e-01 
-2.3563169e-02 -7.2997353e+01 -1.0719707e+01 
5.6969365e+00 5.5435685e+01 1.1854504e+00 
-1.9985789e-02 3.6604575e-02 -1.9954613e-01 
-1.6839882e+00 2.8852833e+00 -1.6753945e-01 
-1.0819236e+00 9.3301325e-01 -3.4264202e+00 
-6.5908033e-01 4.5801219e-01 -3.0097307e+00 
-1.2951192e+00 1.4395096e+00 -3.7564605e+00 
-9.5928809e-02 6.2389566e-02 -9.1119282e-01 
-1.2251462e+00 2.4386658e+00 -2.3972264e+00 
5.0397177e+00 1.6049929e+02 3.2295053e-01 
1.5438802e+01 1.4932954e+02 1.4394940e-01 
-2.4616429e-01 8.2056160e-02 -2.2339915e+00 
-1.0566200e+00 1.9869805e+00 -4.1375461e+00 
9.1540382e+00 1.5981405e+02 2.5219066e-01 
-9.1796880e-01 5.0636507e-01 -4.7684674e+00 
-1.1825173e+00 9.9040232e-01 -5.2417156e+00 
1.8473530e+01 1.2778496e+02 5.7051174e-02 
-2.6579132e-02 -7.3021689e+01 1.0144897e+01 
8.4477074e+00 6.0760714e+01 -4.6981939e-02 
1.9210808e+01 1.3803418e+02 6.5412412e-02 
-4.8820121e-01 9.3215666e-02 -3.9390409e+00 
2.0058946e-03 -8.2468851e-02 -2.1219920e-01 
-1.0770050e+00 1.5230511e+00 -5.5742137e+00 
-5.3763221e-01 3.1150293e+00 -2.4098071e+00 
-6.6348311e-03 -1.4699692e-01 -1.0272710e+00 
-3.9867014e-01 2.6149919e+00 -4.3036236e+00 
1.3004151e+01 1.5894030e+02 1.8202690e-01 
-2.7110515e+00 8.4206931e+01 -2.3452984e-01 
1.8398245e+01 1.4828808e+02 8.1271430e-02 
-3.3182036e+00 1.6859707e+02 4.7998239e-01 
-1.1795507e+00 5.4136184e-01 -6.3913814e+00 
-5.3064215e-01 2.1216094e+00 -5.7459130e+00 
-1.0290741e-01 -2.0603330e-01 -2.5324483e+00 
1.2332461e+00 1.6852250e+02 3.9860712e-01 
-8.3273961e-01 9.6014325e-02 -5.6961515e+00 
-1.2132429e+00 1.0488138e+00 -6.7551850e+00 
5.6395798e+00 1.6820404e+02 3.1796382e-01 
-3.6869966e-01 -2.5959603e-01 -4.4175338e+00 
-8.2062773e-01 1.6195843e+00 -6.9090921e+00 
1.6587209e+01 1.5802883e+02 1.1123083e-01 
-4.0211083e-02 -7.4680651e+01 3.5335935e+01 
1.0721624e+01 6.6041168e+01 -9.0239536e-01 
2.1123077e+01 1.3786794e+02 -4.9476343e-03 
1.9567214e-02 -2.0405503e-01 1.6485280e-01 
3.1553378e-01 3.3597283e+00 -3.9107200e+00 
2.1280082e+01 1.4764359e+02 1.2128139e-02 
9.8910794e+00 1.6768230e+02 2.3799461e-01 
-1.2550856e+00 9.1572800e-02 -7.2403582e+00 
7.1248381e-02 -3.5985882e-01 -5.9393882e-01 
-1.4249513e+00 5.6795414e-01 -7.7009600e+00 
2.4879479e-01 2.8093901e+00 -5.5413916e+00 
-1.1989632e+00 1.1113937e+00 -7.8593935e+00 
-8.2365009e-01 -3.0839572e-01 -6.2799957e+00 
5.0962927e-03 -4.9726748e-01 -2.3306252e+00 
-8.5373195e-02 2.2706782e+00 -6.7789460e+00 
1.9946779e+01 1.5725610e+02 3.8388557e-02 
1.3947459e+01 1.6703153e+02 1.5824388e-01 
-3.2036964e+00 -3.9156458e+01 2.7929562e+02 
-2.4768250e+00 8.7873383e+01 -2.4681979e-01 
1.3344379e+00 -1.8590281e+02 -1.8790139e+02 
1.8664344e+00 -8.6024212e+00 -5.3198547e-01 
-3.2372875e-01 -6.1290730e-01 -4.5202368e+00 
-5.7950562e-01 1.7283454e+00 -7.7588193e+00 
-2.8221276e+00 1.7593000e+02 4.8859304e-01 
-1.7021061e+00 8.5533145e-02 -8.4280018e+00 
1.6514484e+00 -1.8447562e+01 -1.4662361e+00 
3.8253756e-01 -2.6500460e+02 -8.6974997e+01 
3.4451399e+00 -1.6760987e+01 -6.4504364e-01 
-7.8585958e-02 -7.8044192e+01 6.9746877e+01 
1.2669933e+01 7.1193119e+01 -1.4659833e+00 
-1.4168581e+00 -3.5454742e-01 -7.8341185e+00 
-1.6333909e+00 5.9782864e-01 -8.6248598e+00 
1.8098058e+00 1.7589016e+02 3.9932993e-01 
9.2987180e-01 3.6119736e+00 -4.8476273e+00 
-9.5344248e-01 -1.9901653e+01 -7.7937687e-01 
5.1989815e+00 -3.6903464e+01 -1.0406420e+00 
2.8246572e-02 -3.3681873e-01 1.0683868e+00 
2.3574537e+01 1.4753045e+02 -6.4150572e-02 
7.2391588e-01 3.0127884e+00 -6.2573945e+00 
1.1248401e+00 -4.0345718e+01 -8.8466306e-01 
1.2805294e-01 -5.9263938e-01 4.8208773e-01 
5.0206852e-02 -3.0511585e+02 -6.3961800e+01 
4.9543293e+00 -2.5084064e+01 -6.2107732e-01 
1.7808891e+01 1.6636593e+02 7.7766582e-02 
6.3203461e+00 1.7566327e+02 3.1038936e-01 
-1.2642597e+00 -2.1401115e+01 -5.8096512e-01 
8.0663004e+00 -5.3776336e+01 -8.3334580e-01 
-9.2251214e-01 -7.1221316e-01 -6.5935758e+00 
-1.1615341e+00 1.1823648e+00 -8.5428922e+00 
2.3263975e+01 1.5679590e+02 -3.9695131e-02 
-1.0538204e+00 -4.2549293e+01 -6.2740177e-01 
4.3948611e+00 -5.8926731e+01 -7.1926754e-01 
5.1085898e-02 -8.0568182e-01 -1.6554941e+00 
2.5576708e-01 2.4300865e+00 -7.3382915e+00 
4.7173780e-03 -3.3873640e+02 -4.7493870e+01 
5.9169637e+00 -3.3023032e+01 -6.4390724e-01 
1.0716365e+01 1.7528842e+02 2.2170775e-01 
-2.1170938e+00 8.0300183e-02 -9.2186709e+00 
-1.3023221e+00 -2.3088976e+01 -4.4690979e-01 
1.0230000e+01 -6.9639496e+01 -7.1148946e-01 
-2.0570344e+00 -3.9855168e-01 -8.9576534e+00 
1.2764766e+00 -6.2251418e+01 -5.8470075e-01 
-1.6044054e+00 -4.5273263e+01 -4.7490411e-01 
6.9260707e+00 -7.4991758e+01 -6.3087967e-01 
-3.9622116e-01 -9.7848726e-01 -4.3337178e+00 
-3.8230140e-01 1.8461174e+00 -8.1868969e+00 
-1.6936506e+00 -8.0035081e-01 -8.2187930e+00 
-1.7935576e+00 6.3273891e-01 -9.1643954e+00 
2.1501767e+01 1.6581844e+02 -4.3294333e-03 
2.2156844e-02 -3.7709336e+02 -3.4282519e+01 
6.3793532e+00 -4.0406872e+01 -6.6430878e-01 
-2.1663886e-01 -8.3525589e+01 1.2300807e+02 
1.4386367e+01 7.6165767e+01 -1.8126425e+00 
-5.3600490e-01 -6.5388200e+01 -4.3774071e-01 
3.7362642e+00 -7.9215222e+01 -5.2271430e-01 
1.4967966e+01 1.7482573e+02 1.3297857e-01 
1.3553417e+00 3.8657859e+00 -5.3699301e+00 
-1.2041301e+00 -2.5234831e+01 -3.5154541e-01 
1.1453564e+01 -8.4141672e+01 -6.4210788e-01 
2.9863065e-02 -4.9509431e-01 2.7765579e+00 
1.0501365e+00 3.2206186e+00 -6.5861767e+00 
-2.2334304e+00 9.1406966e+01 -2.6055797e-01 
-1.7793949e+00 -4.8639463e+01 -3.5203469e-01 
8.6819024e+00 -8.9365095e+01 -5.7554423e-01 
1.5360528e-01 -8.6719840e-01 2.3356496e+00 
-1.1673350e+00 -1.1194258e+00 -6.7068052e+00 
-1.1179373e+00 1.2612253e+00 -8.8512229e+00 
2.5888254e+01 1.5676909e+02 -1.2165023e-01 
-2.2987763e+00 1.8300773e+02 4.9462612e-01 
1.1781669e+00 -8.2681086e+01 -4.0428028e-01 
-2.6559938e+00 -4.3942767e-01 -9.6473067e+00 
2.4318348e+00 1.8301556e+02 3.9760487e-01 
4.9366969e-01 2.5951476e+00 -7.5338704e+00 
-2.4604098e+00 7.9757914e-02 -9.6358759e+00 
-1.3984884e+00 -6.9030918e+01 -3.0948571e-01 
5.5117708e+00 -9.3623433e+01 -4.8427579e-01 
1.1837103e-02 -1.1550157e+00 -5.7426494e-01 
-2.5061175e+00 -8.8300805e-01 -9.3071639e+00 
8.7387092e-02 -4.2930939e+02 -2.2002608e+01 
6.5878811e+00 -4.7354449e+01 -6.8651835e-01 
1.9076588e+01 1.7436391e+02 4.3491157e-02 
-1.0625660e+00 -2.8149843e+01 -2.7523276e-01 
1.2024208e+01 -9.7536606e+01 -6.0501144e-01 
2.5186266e+01 1.6552581e+02 -9.0801680e-02 
7.0593748e+00 1.8287896e+02 3.0062224e-01 
-1.7720802e+00 -5.2947322e+01 -2.3553977e-01 
9.5684522e+00 -1.0217734e+02 -5.4451224e-01 
-1.9051999e+00 6.7421410e-01 -9.3623473e+00 
-2.1026325e+00 -1.2475113e+00 -8.4227285e+00 
-2.3938673e-01 1.9704560e+00 -8.2783641e+00 
-6.9370845e-01 -8.6038725e+01 -2.8066157e-01 
2.5428868e+00 -9.7155543e+01 -3.7980418e-01 
-6.0861701e-01 -1.3583720e+00 -3.9393785e+00 
-2.0218113e+00 -7.3208686e+01 -1.7523083e-01 
6.4897618e+00 -1.0618199e+02 -4.6240560e-01 
1.1603387e+01 1.8263458e+02 2.0358584e-01 
-7.3476783e-01 -9.1324202e+01 2.1830138e+02 
1.5933261e+01 8.0936924e+01 -2.0003285e+00 
3.2007377e-01 -5.1025354e+02 -9.1032502e+00 
6.6149294e+00 -5.3775139e+01 -7.0913582e-01 
5.0323712e-02 -7.0484053e-01 5.7387485e+00 
-3.2510733e+00 -9.6141369e-01 -9.9086007e+00 
-3.1553696e+00 -4.7630127e-01 -9.9581462e+00 
1.6341888e+00 4.1176528e+00 -5.5905137e+00 
2.3058026e+01 1.7400556e+02 -4.7278777e-02 
-1.0799200e+00 1.3464851e+00 -8.8516522e+00 
-9.3430705e-01 -3.2302991e+01 -2.0550973e-01 
-1.3948657e-01 -1.0008387e+02 -2.6867988e-01 
1.2144998e+01 -1.0987547e+02 -5.8990592e-01 
-1.5515755e+00 -1.5330104e+00 -6.6345721e+00 
-2.2815530e+00 -8.9359905e+01 -1.5384646e-01 
3.2177053e+00 -1.0940660e+02 -3.6662533e-01 
2.5068840e-01 -1.2498066e+00 5.0323036e+00 
1.2551471e+00 3.4293184e+00 -6.6335723e+00 
-2.7166847e+00 8.4672038e-02 -9.7330179e+00 
-1.8245528e+00 -5.8383384e+01 -8.8459361e-02 
9.7931497e+00 -1.1379078e+02 -5.2942121e-01 
-3.0421706e+00 -1.3688309e+00 -9.4716347e+00 
1.6040967e+01 1.8233145e+02 1.0631064e-01 
2.8101853e+01 1.6559121e+02 -1.7845592e-01 
-1.9064822e-02 -1.5393425e+00 8.5630314e-01 
6.4082737e-01 2.7630713e+00 -7.4603085e+00 
-2.9241843e+00 -7.7703299e+01 -1.7049943e-02 
6.7244565e+00 -1.1728783e+02 -4.5034796e-01 
-1.9832627e+00 9.4815988e+01 -2.7531451e-01 
-1.9761331e+00 7.2187271e-01 -9.2789454e+00 
-2.7453679e+00 -1.0244291e+02 -1.5231984e-01 
-6.6693888e-02 -1.1187230e+02 -2.6274844e-01 
-2.6004550e+00 -1.6970478e+00 -8.4087180e+00 
-1.7554091e+00 1.8984276e+02 4.9854202e-01 
3.0869857e+00 1.8990429e+02 3.9381341e-01 
1.0110721e+00 -6.5376809e+02 6.3198013e+00 
6.5496002e+00 -5.9694962e+01 -7.3217968e-01 
-8.5058174e-01 -1.7519689e+00 -3.2562698e+00 
-1.5020975e-01 2.0988759e+00 -8.1141159e+00 
2.7063211e+01 1.7385930e+02 -1.4187436e-01 
2.0374620e+01 1.8203966e+02 8.2590834e-03 
-9.3524456e-01 -3.8294671e+01 -8.6939597e-02 
-4.2624512e+00 -9.2219868e+01 -1.6711065e-02 
3.2498101e+00 -1.2010446e+02 -3.5808485e-01 
1.1986624e+01 -1.2123266e+02 -5.8852844e-01 
-3.8636529e+00 -1.0350750e+00 -1.0119875e+01 
-2.8504576e+00 -6.4806205e+01 1.5601862e-01 
9.5585234e+00 -1.2440708e+02 -5.2357144e-01 
-3.8749010e+00 -1.4853646e+00 -9.9797675e+00 
-3.5314798e+00 -5.0770100e-01 -9.9623843e+00 
7.8403907e+00 1.8985322e+02 2.8894177e-01 
-3.4462112e+00 -1.1346292e+02 -1.5221362e-01 
3.2079698e+00 -1.2067437e+02 3.9510652e+02 
1.7352120e+01 8.5499390e+01 -2.0711206e+00 
-5.1745225e+00 -8.1700025e+01 1.7816319e-01 
6.4242282e+00 -1.2733110e+02 -4.4303420e-01 
-1.9210641e+00 -1.9499124e+00 -6.2072156e+00 
-1.0544595e+00 1.4367181e+00 -8.6130633e+00 
-2.8898078e+00 9.5589755e-02 -9.5716263e+00 
-5.6747033e+00 -1.0388073e+02 -2.8986566e-02 
-4.6031419e-01 -1.2209712e+02 -2.5626897e-01 
8.2697582e-01 -1.2111738e+00 1.0588826e+01 
-3.5958946e+00 -1.8563466e+00 -9.3917038e+00 
1.8007487e+00 4.3654141e+00 -5.5901163e+00 
1.2534228e+01 1.8972368e+02 1.8378479e-01 
1.1953158e+00 -1.7661358e+00 8.8669944e+00 
1.3652127e+00 3.6367151e+00 -6.4768476e+00 
2.4613520e+01 1.8183950e+02 -9.0839874e-02 
-7.3805542e+00 -9.3770714e+01 1.3953544e-01 
2.7849101e+00 -1.2968530e+02 -3.4983174e-01 
-6.2511449e+00 -9.0580804e+02 5.2456907e+01 
6.4358366e+00 -6.5127134e+01 -7.5566357e-01 
3.0238940e+01 1.7400937e+02 -2.3533838e-01 
-3.5336303e+00 -4.6432521e+01 3.2774100e-01 
1.1672785e+01 -1.3168837e+02 -5.9516422e-01 
4.8847492e-01 -1.9768480e+00 3.2637555e+00 
7.1360321e-01 2.9317341e+00 -7.1908537e+00 
-3.0097359e+00 -2.1463945e+00 -8.0007482e+00 
-2.0177593e+00 7.7494660e-01 -8.9752904e+00 
1.7150686e+01 1.8955600e+02 7.8245631e-02 
-7.3686706e+00 -7.0761721e+01 4.9474371e-01 
-7.1131646e+00 -1.1397890e+02 -3.2900966e-02 
-4.3720658e+00 -1.2316383e+02 -1.4609186e-01 
9.0446298e+00 -1.3418707e+02 -5.2258160e-01 
-4.5449077e+00 -1.5969438e+00 -1.0093440e+01 
-4.3215945e+00 -1.1032775e+00 -1.0037565e+01 
-3.7879023e+00 -5.3315391e-01 -9.7292382e+00 
-9.4381577e+00 -1.0388605e+02 1.1145449e-01 
-1.2015482e+00 -1.3128294e+02 -2.4634284e-01 
-6.5204922e-01 -2.1713332e+00 -1.5507370e+00 
-4.4478230e+00 -2.0118440e+00 -9.8018341e+00 
-1.0872674e-01 2.2296931e+00 -7.7611250e+00 
-9.7991970e+00 -8.3489963e+01 4.0021877e-01 
5.7814621e+00 -1.3655413e+02 -4.3722263e-01 
-1.7279391e+00 9.8106078e+01 -2.9075670e-01 
2.8905409e+01 1.8181736e+02 -1.9345475e-01 
-1.1970995e+00 1.9644318e+02 5.0066119e-01 
2.1693370e+01 1.8940615e+02 -2.8093660e-02 
-2.9946814e+00 1.1230835e-01 -9.2099164e+00 
-1.1806303e+01 -9.3055311e+01 3.1361965e-01 
1.9998611e+00 -1.3847277e+02 -3.4008926e-01 
-3.9951819e+00 -2.3438800e+00 -8.9284575e+00 
3.7664312e+00 1.9655991e+02 3.8822113e-01 
-8.5200249e+00 -1.2317750e+02 -2.6435991e-02 
-1.8687372e+00 -2.3807458e+00 -4.8260986e+00 
-1.0449409e+00 1.5305697e+00 -8.1953672e+00 
4.8597194e+01 -3.0403420e+02 -2.1657897e+01 
6.3024788e+00 -7.0108287e+01 -7.7939539e-01 
-1.1300400e+01 -1.1319799e+02 1.0074926e-01 
-5.4481267e+00 -1.3200444e+02 -1.3348200e-01 
1.8671766e+01 8.9855062e+01 -2.0546868e+00 
-2.4550153e+00 -2.6980957e+01 8.1307846e+00 
1.1284609e+01 -1.4132215e+02 -6.0582700e-01 
1.8821652e+00 4.6078671e+00 -5.4250839e+00 
8.6519419e+00 1.9658775e+02 2.7553455e-01 
-4.9125407e+00 -3.7556642e+01 6.8549885e+00 
8.3851969e+00 -1.4325031e+02 -5.2370497e-01 
-5.0396992e+00 -1.7024970e+00 -9.9333535e+00 
1.4028462e+00 3.8414150e+00 -6.1704384e+00 
-4.6328214e+00 -1.1650890e+00 -9.7407657e+00 
-1.3622181e+01 -1.0206886e+02 2.5812935e-01 
-2.1682747e+00 -1.3974206e+02 -2.3255128e-01 
-5.1201493e+00 -2.1623127e+00 -9.8299608e+00 
2.6167137e+01 1.8933737e+02 -1.3533020e-01 
-6.6832455e+00 -4.2560465e+01 3.4750858e+00 
4.9504690e+00 -1.4512455e+02 -4.3134679e-01 
-3.0144849e+00 -2.6096372e+00 -6.7991727e+00 
-2.0415939e+00 8.3263579e-01 -8.5052309e+00 
1.3496674e+01 1.9655848e+02 1.6239118e-01 
7.2808809e-01 3.0997823e+00 -6.7789892e+00 
3.2314828e+01 1.8203970e+02 -2.9285157e-01 
-4.8194839e+00 -2.5396876e+00 -9.2795938e+00 
-3.9438236e+00 -5.5233749e-01 -9.3170888e+00 
-1.2981084e+01 -1.2211311e+02 1.0469945e-01 
-9.8882496e+00 -1.3179906e+02 -1.1432319e-02 
-1.0697547e-01 2.3616442e+00 -7.2706438e+00 
-8.2825149e+00 -4.6889180e+01 7.1208569e-01 
1.0338212e+00 -1.4666077e+02 -3.2837203e-01 
-1.5308154e+01 -1.1109094e+02 2.3092247e-01 
-6.6126802e+00 -1.4025465e+02 -1.1556324e-01 
1.8286610e+01 1.9650550e+02 4.8754085e-02 
6.1637176e+00 -7.4679598e+01 -8.0310507e-01 
1.0870884e+01 -1.5021507e+02 -6.1794678e-01 
-3.0499538e+00 1.3445792e-01 -8.6972414e+00 
-4.0173656e+00 -2.8481495e+00 -7.8469208e+00 
3.0719580e+01 1.8941828e+02 -2.4594452e-01 
7.6688960e+00 -1.5168669e+02 -5.2535244e-01 
-5.3746075e+00 -1.8010723e+00 -9.5864417e+00 
-1.0523167e+00 1.6270462e+00 -7.6461957e+00 
-9.7901270e+00 -5.1410779e+01 -1.1667722e+00 
-3.2607091e+00 -1.4767034e+02 -2.1548499e-01 
-5.6134313e+00 -2.3062317e+00 -9.6133342e+00 
-1.4685393e+00 1.0128103e+02 -3.0663641e-01 
-1.4521007e+01 -1.3073214e+02 1.1992337e-01 
1.9912815e+01 9.4010455e+01 -1.9717641e+00 
-5.4663099e+00 -2.7307860e+00 -9.2705074e+00 
-4.8217774e+00 -1.2200333e+00 -9.2887877e+00 
2.3026412e+01 1.9647381e+02 -6.5715966e-02 
-6.2733426e-01 2.0281433e+02 5.0119599e-01 
4.0374001e+00 -1.5315129e+02 -4.2474228e-01 
-1.6895018e+01 -1.2012329e+02 2.2637935e-01 
-1.1222595e+01 -1.3998964e+02 9.9985077e-03 
1.8994393e+00 4.8444190e+00 -5.1345533e+00 
4.4640072e+00 2.0298469e+02 3.8100319e-01 
1.3862127e+00 4.0426092e+00 -5.7521138e+00 
-1.1233338e+01 -5.6156132e+01 -2.3167476e+00 
-7.8247386e+00 -1.4805672e+02 -9.3569185e-02 
-2.0573822e+00 8.9420393e-01 -7.9121561e+00 
-1.5284711e-02 -1.5436990e+02 -3.1482057e-01 
-4.8468065e+00 -3.0879253e+00 -8.2896633e+00 
-4.0242176e+00 -5.6528095e-01 -8.7719264e+00 
9.4860269e+00 2.0308389e+02 2.6051762e-01 
6.9823674e-01 3.2663357e+00 -6.2625512e+00 
3.4339884e+01 1.8969958e+02 -3.5137495e-01 
2.7717861e+01 1.9651329e+02 -1.8099435e-01 
6.0262436e+00 -7.8884854e+01 -8.2652782e-01 
1.4482229e+01 2.0314147e+02 1.3944760e-01 
-1.8412753e+01 -1.2902035e+02 2.3859644e-01 
-1.5971399e+01 -1.3905220e+02 1.4353546e-01 
-1.3705242e-01 2.4938911e+00 -6.6800428e+00 
1.0457890e+01 -1.5844355e+02 -6.2996641e-01 
-4.4118612e+00 -1.5517704e+02 -1.9583368e-01 
-5.9494609e+00 -2.4421401e+00 -9.2409374e+00 
6.9484687e+00 -1.5956607e+02 -5.2665631e-01 
-5.9455551e+00 -2.9143370e+00 -9.0438559e+00 
-5.5787546e+00 -1.8918555e+00 -9.1109130e+00 
-1.2594330e+01 -6.0971680e+01 -2.9424007e+00 
-1.2535851e+01 -1.4781526e+02 3.6189388e-02 
-3.0733628e+00 1.6161869e-01 -8.0726570e+00 
1.9441398e+01 2.0318518e+02 1.7795220e-02 
3.1078936e+00 -1.6070569e+02 -4.1719395e-01 
-5.5005464e+00 -3.3222455e+00 -8.3571383e+00 
-4.9185007e+00 -1.2678224e+00 -8.7240092e+00 
-1.0760612e+00 1.7254015e+00 -7.0012491e+00 
-9.0581620e+00 -1.5548918e+02 -6.8524212e-02 
3.2509937e+01 1.9667838e+02 -2.9962709e-01 
2.1090504e+01 9.7974136e+01 -1.8369494e+00 
-1.0862443e+00 -1.6167113e+02 -2.9972758e-01 
1.8685640e+00 5.0748517e+00 -4.7459515e+00 
-1.9888311e+01 -1.3765573e+02 2.6262719e-01 
-1.7373629e+01 -1.4705205e+02 1.7324613e-01 
1.3294149e+00 4.2398661e+00 -5.2480922e+00 
-1.3863458e+01 -6.5721828e+01 -3.2173141e+00 
-4.0533985e+00 -5.7213677e-01 -8.1282884e+00 
2.4369076e+01 2.0325138e+02 -1.0472849e-01 
-1.2058261e+00 1.0434337e+02 -3.2277317e-01 
-2.0724022e+00 9.5907733e-01 -7.2290059e+00 
-4.8554195e-02 2.0895971e+02 5.0028025e-01 
5.1754033e+00 2.0918016e+02 3.7226832e-01 
-6.2814783e+00 -3.0883788e+00 -8.6862557e+00 
6.3533638e-01 3.4308694e+00 -5.6679024e+00 
5.8922452e+00 -8.2765319e+01 -8.4946007e-01 
-5.5797037e+00 -1.6232371e+02 -1.7419923e-01 
-6.1593397e+00 -2.5690498e+00 -8.7666268e+00 
-1.3839927e+01 -1.5530514e+02 6.5946307e-02 
1.0057607e+01 -1.6607717e+02 -6.4102668e-01 
6.2512260e+00 -1.6694310e+02 -5.2717271e-01 
-5.9949807e+00 -3.5469124e+00 -8.2003495e+00 
-5.6849162e+00 -1.9744066e+00 -8.5441116e+00 
1.0336995e+01 2.0934277e+02 2.4395941e-01 
3.6321508e+01 1.9700639e+02 -4.1116272e-01 
-1.9199530e-01 2.6258817e+00 -6.0157822e+00 
2.9264604e+01 2.0337940e+02 -2.2801021e-01 
-3.0794538e+00 1.9339111e-01 -7.3655164e+00 
2.1979787e+00 -1.6783504e+02 -4.0867164e-01 
-1.0297603e+01 -1.6259242e+02 -4.1154085e-02 
1.5484827e+01 2.0947490e+02 1.1497068e-01 
-1.5041296e+01 -7.0315819e+01 -3.2699452e+00 
-2.1343356e+01 -1.4595039e+02 2.9476892e-01 
-4.9517230e+00 -1.3084101e+00 -8.0758440e+00 
-1.8756542e+01 -1.5471753e+02 2.0738485e-01 
-1.1148178e+00 1.8251216e+00 -6.2862526e+00 
-2.1444388e+00 -1.6860577e+02 -2.8337048e-01 
2.0609689e+01 2.0959966e+02 -1.4670677e-02 
-6.5037917e+00 -3.2517204e+00 -8.2466422e+00 
3.4279150e+01 2.0361242e+02 -3.5469614e-01 
-4.0517301e+00 -5.7312669e-01 -7.4112335e+00 
2.2216378e+01 1.0175520e+02 -1.6607106e+00 
-1.5142102e+01 -1.6247497e+02 9.8419468e-02 
-6.3563692e+00 -3.7595768e+00 -7.9118457e+00 
-6.7401562e+00 -1.6914296e+02 -1.5102132e-01 
-6.2753507e+00 -2.6863722e+00 -8.2212820e+00 
1.8016026e+00 5.2991688e+00 -4.2788760e+00 
-2.0914796e+00 1.0268140e+00 -6.4797484e+00 
5.7618894e+00 -8.6357773e+01 -8.7176983e-01 
1.2431455e+00 4.4330000e+00 -4.6767954e+00 
9.6738456e+00 -1.7317661e+02 -6.5071836e-01 
-1.6137124e+01 -7.4707041e+01 -3.1882469e+00 
5.5882814e+00 -1.7386113e+02 -5.2669817e-01 
-5.7233572e+00 -2.0485290e+00 -7.9093922e+00 
2.5717758e+01 2.0974652e+02 -1.4522200e-01 
-2.2791860e+01 -1.5386911e+02 3.3243114e-01 
5.4816159e-01 3.5930942e+00 -5.0133850e+00 
-9.4037188e-01 1.0729479e+02 -3.3903886e-01 
-1.1533644e+01 -1.6938728e+02 -1.1965663e-02 
5.3746199e-01 2.1488166e+02 4.9799295e-01 
1.3241938e+00 -1.7457126e+02 -3.9920630e-01 
5.8975296e+00 2.1514740e+02 3.6207935e-01 
-2.0137061e+01 -1.6204464e+02 2.4480227e-01 
-3.0789087e+00 2.2943693e-01 -6.5970782e+00 
-2.6601665e-01 2.7572769e+00 -5.2963160e+00 
3.8265269e+01 2.0397658e+02 -4.7238254e-01 
-4.9453897e+00 -1.3418784e+00 -7.3643326e+00 
-3.1728704e+00 -1.7519749e+02 -2.6595675e-01 
1.1200756e+01 2.1536541e+02 2.2589639e-01 
3.0806251e+01 2.0994640e+02 -2.7650177e-01 
-6.6416486e+00 -3.4038150e+00 -7.7505385e+00 
-6.6136839e+00 -3.9592073e+00 -7.5442472e+00 
-1.6445422e+01 -1.6933376e+02 1.3303286e-01 
-1.1667913e+00 1.9258585e+00 -5.5192971e+00 
1.6500000e+01 2.1556094e+02 8.8963079e-02 
-6.3262416e+00 -2.7938844e+00 -7.6218026e+00 
-1.7165705e+01 -7.8878906e+01 -3.0282865e+00 
-7.8806432e+00 -1.7565113e+02 -1.2659952e-01 
-4.0345388e+00 -5.6849036e-01 -6.6384911e+00 
5.6345414e+00 -8.9693392e+01 -8.9338390e-01 
-2.4242017e+01 -1.6140541e+02 3.7391304e-01 
9.3062616e+00 -1.7979315e+02 -6.5890628e-01 
2.3299372e+01 1.0536244e+02 -1.4507615e+00 
2.1787426e+01 2.1575320e+02 -4.8676928e-02 
4.9614591e+00 -1.8035477e+02 -5.2516225e-01 
-5.7188888e+00 -2.1142294e+00 -7.2212067e+00 
-2.1173339e+00 1.0970926e+00 -5.6813433e+00 
3.6028987e+01 2.1023367e+02 -4.1128050e-01 
1.7076249e+00 5.5174955e+00 -3.7477161e+00 
-1.2760504e+01 -1.7588353e+02 1.8702477e-02 
1.1354207e+00 4.6219772e+00 -4.0514593e+00 
-2.1523118e+01 -1.6903701e+02 2.8473464e-01 
4.9140040e-01 -1.8093657e+02 -3.8884045e-01 
4.4340506e-01 3.7528781e+00 -4.3119023e+00 
2.7069589e+01 2.1596607e+02 -1.8726103e-01 
-4.9175653e+00 -1.3683862e+00 -6.6030265e+00 
-4.1652649e+00 -1.8145968e+02 -2.4762384e-01 
-3.0787796e+00 2.6947828e-01 -5.7823638e+00 
-6.7938696e+00 -4.1455562e+00 -7.1246739e+00 
-6.7202586e+00 -3.5445281e+00 -7.2099305e+00 
-1.8142753e+01 -8.2832343e+01 -2.8231884e+00 
-3.5441855e-01 2.8878828e+00 -4.5344995e+00 
-6.7263469e-01 1.1013635e+02 -3.5534462e-01 
-1.7749754e+01 -1.7588726e+02 1.6939869e-01 
4.0175548e+01 2.1062524e+02 -5.3514405e-01 
1.1293496e+00 2.2058170e+02 4.9437619e-01 
6.6280783e+00 2.2088731e+02 3.5046894e-01 
-2.5697837e+01 -1.6856774e+02 4.1815151e-01 
-8.9956472e+00 -1.8185553e+02 -1.0112616e-01 
-6.3351255e+00 -2.8915889e+00 -6.9771221e+00 
3.2341755e+01 2.1622386e+02 -3.2655224e-01 
-1.2299693e+00 2.0273887e+00 -4.7129763e+00 
1.2074243e+01 2.2115294e+02 2.0634523e-01 
5.5094492e+00 -9.2797710e+01 -9.1426769e-01 
8.9528037e+00 -1.8596898e+02 -6.6561032e-01 
-4.0123083e+00 -5.5845488e-01 -5.8224388e+00 
-5.6900911e+00 -2.1716268e+00 -6.4885840e+00 
-2.2916978e+01 -1.7570135e+02 3.2669306e-01 
4.3679298e+00 -1.8645164e+02 -5.2256642e-01 
-1.3974622e+01 -1.8208488e+02 5.0627779e-02 
1.7524349e+01 2.2140179e+02 6.1420953e-02 
-2.1510344e+00 1.1696838e+00 -4.8456295e+00 
-3.0181205e-01 -1.8694695e+02 -3.7761281e-01 
2.4346523e+01 1.0880397e+02 -1.2129779e+00 
1.5934694e+00 5.7300171e+00 -3.1633894e+00 
3.7760705e+01 2.1655405e+02 -4.6946375e-01 
1.0122441e+00 4.8068532e+00 -3.3818932e+00 
-1.9082855e+01 -8.6576318e+01 -2.5906793e+00 
-6.9193644e+00 -4.3187940e+00 -6.6650582e+00 
2.2971448e+01 2.2164979e+02 -8.4248923e-02 
-5.1213415e+00 -1.8739999e+02 -2.2845583e-01 
-6.7595260e+00 -3.6739712e+00 -6.6296076e+00 
3.2615545e-01 3.9101882e+00 -3.5727486e+00 
-4.8807231e+00 -1.3881223e+00 -5.8011517e+00 
-1.9053268e+01 -1.8213886e+02 2.0726060e-01 
-3.0831235e+00 3.1329689e-01 -4.9318791e+00 
-2.7160718e+01 -1.7537016e+02 4.6451222e-01 
-4.5339496e-01 3.0176036e+00 -3.7394089e+00 
-6.3191247e+00 -2.9796233e+00 -6.2919648e+00 
-1.0083732e+01 -1.8775863e+02 -7.4719588e-02 
2.8422256e+01 2.2191630e+02 -2.3088911e-01 
4.2055915e+01 2.1696595e+02 -5.9951819e-01 
-4.0299675e-01 1.1286871e+02 -3.7163064e-01 
1.7260108e+00 2.2606091e+02 4.8944812e-01 
5.3860010e+00 -9.5691049e+01 -9.3440610e-01 
-2.4317741e+01 -1.8204464e+02 3.7036885e-01 
-1.3022519e+00 2.1295760e+00 -3.8761059e+00 
8.6110242e+00 -1.9173796e+02 -6.7092885e-01 
7.3652435e+00 2.2640072e+02 3.3745085e-01 
-3.9914739e+00 -5.4322214e-01 -4.9717308e+00 
-1.5173934e+01 -1.8799175e+02 8.3666232e-02 
3.8030461e+00 -1.9217369e+02 -5.1894934e-01 
-5.6497811e+00 -2.2208953e+00 -5.7173964e+00 
3.3870205e+01 2.2222037e+02 -3.7821528e-01 
-1.9997927e+01 -9.0121986e+01 -2.3388774e+00 
1.2955069e+01 2.2670658e+02 1.8531132e-01 
-1.0597077e+00 -1.9261427e+02 -3.6555625e-01 
-7.0073549e+00 -4.4792607e+00 -6.1690542e+00 
-2.1924516e+00 1.2444293e+00 -3.9808938e+00 
1.8555209e+01 2.2699973e+02 3.2338439e-02 
-6.7740196e+00 -3.7923643e+00 -6.0109879e+00 
2.5363451e+01 1.1208709e+02 -9.5199936e-01 
-2.0353529e+01 -1.8809006e+02 2.4644893e-01 
-6.0437867e+00 -1.9302290e+02 -2.0850172e-01 
1.4643328e+00 5.9369420e+00 -2.5344851e+00 
-2.8630554e+01 -1.8182668e+02 5.1263405e-01 
8.7814574e-01 4.9877315e+00 -2.6756486e+00 
-4.8426843e+00 -1.4012752e+00 -4.9651561e+00 
3.9475281e+01 2.2258418e+02 -5.2929841e-01 
2.4159243e+01 2.2729330e+02 -1.2140436e-01 
2.0031559e-01 4.0650519e+00 -2.8028614e+00 
-3.0937418e+00 3.6072502e-01 -4.0530215e+00 
-1.1145674e+01 -1.9336048e+02 -4.7450500e-02 
-6.2899918e+00 -3.0581809e+00 -5.5690599e+00 
-2.5723110e+01 -1.8807242e+02 4.1556860e-01 
-5.5982964e-01 3.1464075e+00 -2.9176433e+00 
2.9773888e+01 2.2760300e+02 -2.7613374e-01 
5.2637932e+00 -9.8389239e+01 -9.5378934e-01 
-2.0896910e+01 -9.3479587e+01 -2.0703952e+00 
-1.6357430e+01 -1.9360279e+02 1.1772488e-01 
8.2786903e+00 -1.9712678e+02 -6.7499168e-01 
4.3909348e+01 2.2301076e+02 -6.6555005e-01 
3.2619010e+00 -1.9753830e+02 -5.1436677e-01 
-5.6060487e+00 -2.2622223e+00 -4.9117700e+00 
-3.9753928e+00 -5.2296228e-01 -4.0925399e+00 
-7.0700980e+00 -4.6273279e+00 -5.6363819e+00 
-1.3815356e+00 2.2323450e+00 -3.0150030e+00 
-1.3178362e-01 1.1549233e+02 -3.8785842e-01 
-1.7874175e+00 -1.9794754e+02 -3.5269944e-01 
2.3265322e+00 2.3132010e+02 4.8321182e-01 
3.5390850e+01 2.2794372e+02 -4.3152351e-01 
-3.0106442e+01 -1.8794871e+02 5.6232038e-01 
-6.7736690e+00 -3.8999576e+00 -5.3542718e+00 
8.1075527e+00 2.3168850e+02 3.2302769e-01 
-2.1648197e+01 -1.9374093e+02 2.8685050e-01 
-2.2406549e+00 1.3212235e+00 -3.0930628e+00 
-6.9364547e+00 -1.9833116e+02 -1.8778983e-01 
1.3841308e+01 2.3202771e+02 1.6279414e-01 
2.6354697e+01 1.1521824e+02 -6.7162535e-01 
-4.8077404e+00 -1.4080167e+00 -4.0997649e+00 
1.3242092e+00 6.1384800e+00 -1.8680184e+00 
1.9590433e+01 2.3235712e+02 1.7101135e-03 
-1.2183321e+01 -1.9866010e+02 -1.9360603e-02 
-6.2551537e+00 -3.1274648e+00 -4.8103596e+00 
7.3659027e-01 5.1647384e+00 -1.9387896e+00 
4.1173529e+01 2.2833355e+02 -5.9081564e-01 
-3.1108687e+00 4.1163710e-01 -3.1511367e+00 
-2.7130417e+01 -1.9378828e+02 4.6216957e-01 
6.8926579e-02 4.2175310e+00 -2.0076599e+00 
-2.1785919e+01 -9.6657146e+01 -1.7850469e+00 
2.5348787e+01 2.3268750e+02 -1.6015414e-01 
-1.7524852e+01 -1.9891586e+02 1.5274323e-01 
5.1425995e+00 -1.0090439e+02 -9.7240415e-01 
-6.7113326e-01 3.2743021e+00 -2.0742171e+00 
7.9539893e+00 -2.0215611e+02 -6.7793259e-01 
-7.1157639e+00 -4.7633265e+00 -5.0653730e+00 
2.7400687e+00 -2.0255908e+02 -5.0887971e-01 
-5.5634276e+00 -2.2957848e+00 -4.0749186e+00 
-3.9652615e+00 -4.9781393e-01 -3.1894434e+00 
4.5738359e+01 2.2877031e+02 -7.3326692e-01 
3.1122978e+01 2.3303156e+02 -3.2301041e-01 
-2.4899045e+00 -2.0295379e+02 -3.3906844e-01 
-3.1587086e+01 -1.9374427e+02 6.1346805e-01 
-1.4657787e+00 2.3356606e+00 -2.1343841e+00 
-6.7647437e+00 -3.9969846e+00 -4.6595433e+00 
-2.2935358e+01 -1.9909047e+02 3.2838836e-01 
-7.8033770e+00 -2.0332661e+02 -1.6633745e-01 
1.4072607e-01 1.1800750e+02 -4.0400507e-01 
2.9301389e+00 2.3635993e+02 4.7566120e-01 
-2.2942363e+00 1.3999985e+00 -2.1865485e+00 
3.6903100e+01 2.3340093e+02 -4.8649463e-01 
8.8537687e+00 2.3675160e+02 3.0719590e-01 
-4.7777053e+00 -1.4084946e+00 -3.2086635e+00 
-6.2188238e+00 -3.1876619e+00 -4.0176451e+00 
-1.3198932e+01 -2.0365618e+02 9.5251769e-03 
2.7323958e+01 1.1820306e+02 -3.7507631e-01 
-2.8537163e+01 -1.9919399e+02 5.1009135e-01 
1.1762098e+00 6.3348310e+00 -1.1699295e+00 
-2.2668720e+01 -9.9660263e+01 -1.4815161e+00 
1.4731364e+01 2.3711785e+02 1.3879075e-01 
5.9027030e-01 5.3380068e+00 -1.1763991e+00 
-3.1337419e+00 4.6594080e-01 -2.2302609e+00 
2.0628264e+01 2.3747641e+02 -3.0467751e-02 
-1.8676460e+01 -2.0392859e+02 1.8868111e-01 
-6.5598931e-02 4.3677037e+00 -1.1915933e+00 
4.2856161e+01 2.3381060e+02 -6.5403169e-01 
-7.1494248e+00 -4.8875228e+00 -4.4543299e+00 
5.0223117e+00 -1.0324565e+02 -9.9022965e-01 
7.6355332e+00 -2.0684179e+02 -6.7987455e-01 
-5.5239700e+00 -2.3217380e+00 -3.2096026e+00 
2.2338669e+00 -2.0724666e+02 -5.0254734e-01 
-7.8512729e-01 3.4013183e+00 -1.2131505e+00 
2.6538428e+01 2.3783603e+02 -2.0050345e-01 
-3.3071018e+01 -1.9921828e+02 6.6602301e-01 
-6.7508405e+00 -4.0836445e+00 -3.9272461e+00 
-3.1715097e+00 -2.0763849e+02 -3.2468730e-01 
-3.9608793e+00 -4.6788739e-01 -2.2660183e+00 
-2.4213632e+01 -2.0413709e+02 3.7100872e-01 
-1.5530537e+00 2.4395141e+00 -1.2379668e+00 
4.7545072e+01 2.3425393e+02 -8.0268343e-01 
-8.6482755e+00 -2.0801064e+02 -1.4415632e-01 
3.2468307e+01 2.3820702e+02 -3.7152564e-01 
-2.3515593e+00 1.4807132e+00 -1.2648179e+00 
-2.3547284e+01 -1.0249245e+02 -1.1582978e+00 
-2.9941228e+01 -2.0428988e+02 5.5927831e-01 
-1.4194799e+01 -2.0834747e+02 3.9191348e-02 
-6.1829940e+00 -3.2389333e+00 -3.1927775e+00 
-4.7527852e+00 -1.4028321e+00 -2.2949149e+00 
4.1429441e-01 1.2041448e+02 -4.2005914e-01 
3.8406501e+01 2.3859841e+02 -5.4313556e-01 
3.5361673e+00 2.4118110e+02 4.6678491e-01 
2.8274262e+01 1.2104649e+02 -6.5167456e-02 
9.6028327e+00 2.4159107e+02 2.8994885e-01 
-7.1739734e+00 -5.0001176e+00 -3.8021469e+00 
1.0227895e+00 6.5261792e+00 -4.4541665e-01 
-1.9812837e+01 -2.0863874e+02 2.2551108e-01 
-3.1610404e+00 5.2356897e-01 -1.2936129e+00 
4.4131179e-01 5.5076665e+00 -3.9290926e-01 
1.5623891e+01 2.4197865e+02 1.1329769e-01 
4.9028831e+00 -1.0541985e+02 -1.0072364e+00 
-3.4556704e+01 -2.0437326e+02 7.1995409e-01 
-2.0131641e-01 4.5156543e+00 -3.5849520e-01 
7.3222814e+00 -2.1119583e+02 -6.8092270e-01 
4.4523799e+01 2.3902283e+02 -7.1895204e-01 
2.1667232e+01 2.4236009e+02 -6.4196664e-02 
1.7403678e+00 -2.1160927e+02 -4.9542288e-01 
-5.4881222e+00 -2.3402133e+00 -2.3183566e+00 
-6.7337369e+00 -4.1600989e+00 -3.1583143e+00 
-2.5482125e+01 -2.0887896e+02 4.1467265e-01 
-8.9996633e-01 3.5274991e+00 -3.3784919e-01 
-3.8358241e+00 -2.1200602e+02 -3.0957788e-01 
-3.9612311e+00 -4.3326964e-01 -1.3252190e+00 
2.7726806e+01 2.4274245e+02 -2.4245267e-01 
-9.4743692e+00 -2.1238441e+02 -1.2125539e-01 
-1.6415889e+00 2.5439123e+00 -3.2885699e-01 
4.9331278e+01 2.3946985e+02 -8.7380459e-01 
-2.4422307e+01 -1.0515563e+02 -8.1417079e-01 
-3.1340903e+01 -2.0907543e+02 6.0968898e-01 
3.3808884e+01 2.4313408e+02 -4.2167909e-01 
-1.5173061e+01 -2.1273299e+02 6.9627715e-02 
-6.1482293e+00 -3.2814134e+00 -2.3377572e+00 
-2.4109394e+00 1.5633434e+00 -3.3075771e-01 
-4.7322377e+00 -1.3911304e+00 -1.3611988e+00 
-7.1908753e+00 -5.1012584e+00 -3.1085050e+00 
-2.0934743e+01 -2.1304439e+02 2.6321378e-01 
3.9900702e+01 2.4354196e+02 -6.0144524e-01 
2.9208093e+01 1.2375283e+02 2.5557441e-01 
6.8871882e-01 1.2271356e+02 -4.3601767e-01 
8.6590750e-01 6.7126905e+00 3.0084119e-01 
-3.6042602e+01 -2.0921016e+02 7.7523843e-01 
4.1440478e+00 2.4578432e+02 4.5656882e-01 
-3.1911972e+00 5.8447233e-01 -3.4390358e-01 
4.7842866e+00 -1.0743211e+02 -1.0233876e+00 
2.9141519e-01 5.6738394e+00 4.0768321e-01 
1.0353831e+01 2.4620807e+02 2.7127877e-01 
7.0134463e+00 -2.1522728e+02 -6.8116214e-01 
1.2572998e+00 -2.1565328e+02 -4.8755142e-01 
-5.4553818e+00 -2.3513208e+00 -1.4035836e+00 
-3.3664130e-01 4.6614661e+00 4.8819274e-01 
-6.7140587e+00 -4.2264776e+00 -2.3541309e+00 
1.6517740e+01 2.4661187e+02 8.6312049e-02 
-2.6740329e+01 -2.1331430e+02 4.5935090e-01 
-4.4857235e+00 -2.1605992e+02 -2.9375928e-01 
4.6176985e+01 2.4397695e+02 -7.8557396e-01 
2.2706103e+01 2.4701071e+02 -9.9475784e-02 
-1.0140865e+00 3.6528915e+00 5.4865903e-01 
-3.9649024e+00 -3.9403009e-01 -3.6960451e-01 
-1.0284338e+01 -2.1644898e+02 -9.7641909e-02 
-2.5293645e+01 -1.0765074e+02 -4.4838259e-01 
-3.2734840e+01 -2.1354968e+02 6.6128982e-01 
2.8912787e+01 2.4741020e+02 -2.8599817e-01 
-1.7297957e+00 2.6488700e+00 5.9021204e-01 
-1.6135613e+01 -2.1681210e+02 1.0082717e-01 
-6.1142564e+00 -3.3152146e+00 -1.4546922e+00 
5.1098465e+01 2.4442532e+02 -9.4662762e-01 
-4.7148373e+00 -1.3734739e+00 -4.0993827e-01 
-7.2007326e+00 -5.1910554e+00 -2.3738417e+00 
-2.4707633e+00 1.6478758e+00 6.1310320e-01 
3.5143896e+01 2.4781714e+02 -4.7346512e-01 
-2.2043001e+01 -2.1714410e+02 3.0177498e-01 
-3.7527188e+01 -2.1372905e+02 8.3185394e-01 
4.6664890e+00 -1.0928623e+02 -1.0386412e+00 
-3.2226078e+00 6.4861317e-01 6.1647870e-01 
3.0127481e+01 1.2632587e+02 5.8483140e-01 
4.1385428e+01 2.4823688e+02 -6.6141634e-01 
6.7084120e+00 -2.1894303e+02 -6.8065840e-01 
7.0714067e-01 6.8945120e+00 1.0645345e+00 
-6.6917650e+00 -4.2828871e+00 -1.5164172e+00 
-2.7988005e+01 -2.1744165e+02 5.0502036e-01 
9.6382659e-01 1.2490504e+02 -4.5188392e-01 
-5.4247570e+00 -2.3551540e+00 -4.6757921e-01 
1.4195264e-01 5.8366361e+00 1.2216778e+00 
7.8291699e-01 -2.1938371e+02 -4.7896910e-01 
4.7532897e+00 2.5017046e+02 4.4499770e-01 
1.1105970e+01 2.5060389e+02 2.5117782e-01 
-5.1234706e+00 -2.1980312e+02 -2.7724727e-01 
-4.7027535e-01 4.8052168e+00 1.3452819e+00 
-2.6160650e+01 -1.0997811e+02 -6.0674073e-02 
1.7411924e+01 2.5101937e+02 5.7832052e-02 
-3.9703534e+00 -3.5022623e-01 5.9853283e-01 
4.7816174e+01 2.4867897e+02 -8.5388816e-01 
-1.1080362e+01 -2.2020545e+02 -7.3321684e-02 
-1.1261687e+00 3.7775420e+00 1.4435816e+00 
-3.4121967e+01 -2.1771172e+02 7.1405149e-01 
2.3743826e+01 2.5143079e+02 -1.3630200e-01 
-1.7084081e+01 -2.2058457e+02 1.3278453e-01 
-6.0803689e+00 -3.3404339e+00 -5.4573454e-01 
-1.8162829e+00 2.7544046e+00 1.5167373e+00 
-7.2036743e+00 -5.2695971e+00 -1.5992199e+00 
3.0095422e+01 2.5184260e+02 -3.3113298e-01 
-4.6991816e+00 -1.3499353e+00 5.5663893e-01 
5.2847851e+01 2.4912673e+02 -1.0211431e+00 
-2.5295612e+00 1.7343018e+00 1.5644625e+00 
-3.9008973e+01 -2.1792972e+02 8.8977584e-01 
-2.3138411e+01 -2.2093692e+02 3.4118373e-01 
3.6472668e+01 2.5226031e+02 -5.2687371e-01 
4.5494401e+00 -1.1098510e+02 -1.0529528e+00 
6.4066750e+00 -2.2234837e+02 -6.7945941e-01 
-6.6664755e+00 -4.3294204e+00 -6.4710831e-01 
-3.2537565e+00 7.1596013e-01 1.5853622e+00 
-2.9225073e+01 -2.2126001e+02 5.5166177e-01 
3.1034078e+01 1.2876892e+02 9.2043943e-01 
3.1587578e-01 -2.2280454e+02 -4.6970324e-01 
-5.3950663e+00 -2.3517958e+00 4.8747524e-01 
5.4776423e-01 7.0717728e+00 1.8416209e+00 
4.2860446e+01 2.5268801e+02 -7.2303651e-01 
-2.7022412e+01 -1.1213790e+02 3.4877672e-01 
-5.9636947e-03 5.9961550e+00 2.0455804e+00 
-5.7508305e+00 -2.2323814e+02 -2.6005411e-01 
1.2394691e+00 1.2698931e+02 -4.6766585e-01 
-6.0115420e-01 4.9469763e+00 2.2097519e+00 
5.3634684e+00 2.5434046e+02 4.3205625e-01 
-1.1864189e+01 -2.2365500e+02 -4.8299225e-02 
1.1858564e+01 2.5477992e+02 2.2963880e-01 
-3.5501410e+01 -2.2156087e+02 7.6794660e-01 
-3.9760864e+00 -3.0190866e-01 1.5770977e+00 
-1.2351089e+00 3.9014927e+00 2.3442773e+00 
4.9441729e+01 2.5313428e+02 -9.2387978e-01 
1.8305591e+01 2.5520306e+02 2.7857250e-02 
-1.8019823e+01 -2.2405059e+02 1.6549577e-01 
-6.0456884e+00 -3.3571592e+00 3.8698569e-01 
-7.1996105e+00 -5.3369626e+00 -7.8616666e-01 
2.4779506e+01 2.5562287e+02 -1.7467009e-01 
-1.8998568e+00 2.8605323e+00 2.4483651e+00 
-4.0486519e+01 -2.2181210e+02 9.4897553e-01 
-4.6838770e+00 -1.3205805e+00 1.5364733e+00 
-2.4221702e+01 -2.2442252e+02 3.8143095e-01 
3.1273902e+01 2.5604284e+02 -3.7784723e-01 
5.4580403e+01 2.5357980e+02 -1.0973354e+00 
-2.5860405e+00 1.8226134e+00 2.5211717e+00 
-6.6376766e+00 -4.3661646e+00 2.5175909e-01 
3.7794624e+01 2.5646744e+02 -5.8189130e-01 
4.4330709e+00 -1.1253098e+02 -1.0662773e+00 
-3.0451531e+01 -2.2476890e+02 5.9925796e-01 
6.1078067e+00 -2.2544747e+02 -6.7759816e-01 
-5.3651174e+00 -2.3413240e+00 1.4595288e+00 
-2.7877923e+01 -1.1413028e+02 7.7944297e-01 
-3.2832822e+00 7.8648391e-01 2.5607339e+00 
-1.4486553e-01 -2.2591909e+02 -4.5977323e-01 
3.1929210e+01 1.3108494e+02 1.2603492e+00 
-6.3691758e+00 -2.2636727e+02 -2.4218860e-01 
3.8881083e-01 7.2445847e+00 2.6282546e+00 
-1.5143188e-01 6.1524817e+00 2.8760450e+00 
4.4325550e+01 2.5689979e+02 -7.8628910e-01 
-3.6872427e+01 -2.2509695e+02 8.2294832e-01 
-1.2637204e+01 -2.2679897e+02 -2.2577886e-02 
-7.2840755e-01 5.0868052e+00 3.0786990e+00 
-3.9807346e+00 -2.4912548e-01 2.5641557e+00 
1.5155162e+00 1.2896683e+02 -4.8337490e-01 
5.9742129e+00 2.5829543e+02 4.1772981e-01 
1.2611011e+01 2.5873766e+02 2.0665546e-01 
-7.1883822e+00 -5.3932320e+00 6.3482170e-02 
-1.3399913e+00 4.0247795e+00 3.2482088e+00 
-1.8943950e+01 -2.2721074e+02 1.9895744e-01 
-6.0093189e+00 -3.3654756e+00 1.3414150e+00 
5.1053921e+01 2.5734775e+02 -9.9552905e-01 
1.9198005e+01 2.5916493e+02 -3.6113812e-03 
-4.1958450e+01 -2.2537647e+02 1.0094204e+00 
-1.9795099e+00 2.9672653e+00 3.3828461e+00 
2.5812369e+01 2.5958946e+02 -2.1457291e-01 
-2.5293500e+01 -2.2760107e+02 4.2250839e-01 
-4.6676374e+00 -1.2854737e+00 2.5276628e+00 
-2.6390933e+00 1.9128008e+00 3.4811964e+00 
5.6296872e+01 2.5778961e+02 -1.1751838e+00 
3.2447532e+01 2.6001397e+02 -4.2612859e-01 
-6.6048406e+00 -4.3932078e+00 1.1781356e+00 
-3.1667399e+01 -2.2796849e+02 6.4779257e-01 
-2.8726181e+01 -1.1595561e+02 1.2305428e+00 
4.3172977e+00 -1.1392568e+02 -1.0785719e+00 
5.8114328e+00 -2.2824376e+02 -6.7509559e-01 
-6.0012246e-01 -2.2873022e+02 -4.4919169e-01 
-5.3338035e+00 -2.3238151e+00 2.4466757e+00 
3.9109262e+01 2.6044215e+02 -6.3850117e-01 
-3.3100026e+00 8.6015399e-01 3.5407089e+00 
-6.9795741e+00 -2.2919268e+02 -2.2365662e-01 
3.2813929e+01 1.3327654e+02 1.6025978e+00 
-3.8234361e+01 -2.2832034e+02 8.7902939e-01 
2.3111486e-01 7.4130438e+00 3.4207360e+00 
-1.3400497e+01 -2.2963886e+02 3.8397800e-03 
-2.9372210e-01 6.3056890e+00 3.7098346e+00 
4.5780536e+01 2.6087631e+02 -8.5115369e-01 
-3.9830988e+00 -1.9192568e-01 3.5579142e+00 
-8.5132660e-01 5.2247541e+00 3.9493052e+00 
-7.1698425e+00 -5.4384921e+00 9.4771520e-01 
-1.9857350e+01 -2.3006607e+02 2.3316608e-01 
-5.9704276e+00 -3.3654696e+00 2.3156155e+00 
-1.4400619e+00 4.1474306e+00 4.1529153e+00 
1.7918510e+00 1.3083814e+02 -4.9902516e-01 
6.5851944e+00 2.6203662e+02 4.0200486e-01 
-4.3423470e+01 -2.2862367e+02 1.0710743e+00 
1.3362787e+01 2.6247871e+02 1.8222278e-01 
5.2652931e+01 2.6132382e+02 -1.0688118e+00 
-2.6354311e+01 -2.3047335e+02 4.6440764e-01 
-2.0544028e+00 3.0746100e+00 4.3180114e+00 
2.0088525e+01 2.6290698e+02 -3.6571437e-02 
-4.6493266e+00 -1.2446800e+00 3.5284577e+00 
2.6841745e+01 2.6333303e+02 -2.5600154e-01 
-6.5674851e+00 -4.4106433e+00 2.1300253e+00 
-2.6877851e+00 2.0048493e+00 4.4425952e+00 
-2.9566252e+01 -1.1761453e+02 1.7011252e+00 
-3.2872678e+01 -2.3085951e+02 6.9724889e-01 
5.7997805e+01 2.6176076e+02 -1.2546619e+00 
4.2020289e+00 -1.1517074e+02 -1.0897969e+00 
3.3615708e+01 2.6375897e+02 -4.7596251e-01 
5.5172236e+00 -2.3074022e+02 -6.7196343e-01 
-1.0505381e+00 -2.3124056e+02 -4.3796603e-01 
-5.3001429e+00 -2.2993488e+00 3.4471645e+00 
-3.3329108e+00 9.3693613e-01 4.5235131e+00 
-7.5828535e+00 -2.3171657e+02 -2.0446183e-01 
4.0416138e+01 2.6418783e+02 -6.9668393e-01 
-3.9586612e+01 -2.3123199e+02 9.3616147e-01 
3.3689052e+01 1.3534608e+02 1.9452868e+00 
-1.4154914e+01 -2.3217645e+02 3.0951486e-02 
7.5346784e-02 7.5772318e+00 4.2154748e+00 
-4.3224623e-01 6.4558381e+00 4.5437948e+00 
-7.1438913e+00 -5.4728413e+00 1.8644527e+00 
-3.9821499e+00 -1.3036180e-01 4.5567110e+00 
4.7225199e+01 2.6462135e+02 -9.1760654e-01 
-9.6933594e-01 5.3608636e+00 4.8188180e+00 
-2.0760717e+01 -2.3261799e+02 2.6811759e-01 
-5.9282779e+00 -3.3572330e+00 3.3077901e+00 
-4.4880367e+01 -2.3155510e+02 1.1338980e+00 
-1.5347019e+00 4.2694658e+00 5.0559967e+00 
2.0683651e+00 1.3260386e+02 -5.1463268e-01 
-2.7404525e+01 -2.3304063e+02 5.0711931e-01 
7.1961158e+00 2.6556541e+02 3.8486933e-01 
5.4238852e+01 2.6506653e+02 -1.1436997e+00 
1.4113429e+01 2.6600476e+02 1.5633706e-01 
-4.6279639e+00 -1.1982689e+00 4.5372559e+00 
-2.1238388e+00 3.1825657e+00 5.2517588e+00 
2.0976589e+01 2.6643128e+02 -7.1019109e-02 
-3.0397300e+01 -1.1910799e+02 2.1901426e+00 
-6.5251958e+00 -4.4185730e+00 3.1055318e+00 
-3.4067330e+01 -2.3344329e+02 7.4760908e-01 
-2.7313333e+00 2.0987384e+00 5.4035077e+00 
2.7867049e+01 2.6685603e+02 -2.9894547e-01 
4.0871726e+00 -1.1626756e+02 -1.0999174e+00 
5.9683581e+01 2.6549744e+02 -1.3357388e+00 
5.2248917e+00 -2.3293960e+02 -6.6820682e-01 
-1.4966199e+00 -2.3345267e+02 -4.2610000e-01 
-5.2632856e+00 -2.2680096e+00 4.4594015e+00 
3.4777897e+01 2.6728065e+02 -5.2733252e-01 
-4.0928615e+01 -2.3383349e+02 9.9431464e-01 
-8.1796530e+00 -2.3394122e+02 -1.8460667e-01 
-3.3511565e+00 1.0167906e+00 5.5074732e+00 
-1.4901104e+01 -2.3441375e+02 5.8754544e-02 
4.1714844e+01 2.6770770e+02 -7.5641776e-01 
-7.1104837e+00 -5.4963909e+00 2.8116292e+00 
3.4555192e+01 1.3729569e+02 2.2865655e+00 
-7.7959383e-02 7.7372172e+00 5.0089607e+00 
-5.6653242e-01 6.6029783e+00 5.3748326e+00 
-3.9770121e+00 -6.4491826e-02 5.5590064e+00 
-5.8822341e+00 -3.3408644e+00 4.3162959e+00 
-2.1654575e+01 -2.3486837e+02 3.0380650e-01 
-4.6328022e+01 -2.3417276e+02 1.1978493e+00 
-1.0819685e+00 5.4951641e+00 5.6845359e+00 
4.8659319e+01 2.6813842e+02 -9.8562092e-01 
-2.8444416e+01 -2.3530470e+02 5.5063229e-01 
-1.6234025e+00 4.3908960e+00 5.9551031e+00 
-4.6027096e+00 -1.1463156e+00 5.5525975e+00 
2.3449546e+00 1.3426468e+02 -5.3021506e-01 
-2.1872383e+00 3.2911239e+00 6.1820439e+00 
-3.1218599e+01 -1.2043721e+02 2.6965097e+00 
5.5811699e+01 2.6857961e+02 -1.2201610e+00 
7.8067027e+00 2.6888328e+02 3.6631279e-01 
-6.4776275e+00 -4.4171089e+00 4.1028891e+00 
1.4862523e+01 2.6931759e+02 1.2899605e-01 
-3.5251275e+01 -2.3572172e+02 7.9885336e-01 
2.1861701e+01 2.6973990e+02 -1.0694922e-01 
-2.7690797e+00 2.1944404e+00 6.3621466e+00 
3.9726422e+00 -1.1721747e+02 -1.1089035e+00 
4.9341924e+00 -2.3484453e+02 -6.6382657e-01 
2.8887762e+01 2.7016087e+02 -3.4339268e-01 
-5.2225004e+00 -2.2298894e+00 5.4819496e+00 
-1.9387649e+00 -2.3536910e+02 -4.1359516e-01 
6.1354424e+01 2.6900346e+02 -1.4183791e+00 
-4.2259833e+01 -2.3612698e+02 1.0534569e+00 
-8.7704586e+00 -2.3586906e+02 -1.6409327e-01 
-3.3640184e+00 1.0996710e+00 6.4910087e+00 
3.5933620e+01 2.7058177e+02 -5.8022039e-01 
-1.5639553e+01 -2.3635308e+02 8.7245138e-02 
-7.0696234e+00 -5.5092665e+00 3.7872559e+00 
4.3005000e+01 2.7100479e+02 -8.1767866e-01 
3.5412793e+01 1.3912733e+02 2.6246160e+00 
-4.7765412e+01 -2.3647921e+02 1.2628841e+00 
-2.2539305e+01 -2.3681941e+02 3.4022538e-01 
-5.8317500e+00 -3.3164716e+00 5.3396510e+00 
-2.2838352e-01 7.8930567e+00 5.7977390e+00 
-3.9669370e+00 5.6196046e-03 6.5633755e+00 
-6.9620346e-01 6.7471485e+00 6.1998995e+00 
-1.1888432e+00 5.6276763e+00 6.5437969e+00 
-2.9474157e+01 -2.3726781e+02 5.9493309e-01 
5.0082665e+01 2.7143083e+02 -1.0551674e+00 
-1.7057402e+00 4.5117234e+00 6.8479260e+00 
-3.2029530e+01 -1.2160372e+02 3.2191492e+00 
-4.5728404e+00 -1.0889025e+00 6.5731587e+00 
-6.4244938e+00 -4.4063737e+00 5.1204819e+00 
-3.6424385e+01 -2.3769719e+02 8.5095952e-01 
-2.2441115e+00 3.4002680e+00 7.1068733e+00 
5.7371414e+01 2.7186652e+02 -1.2981603e+00 
2.6215173e+00 1.3582134e+02 -5.4579108e-01 
8.4166958e+00 2.7199187e+02 3.4632659e-01 
1.5609696e+01 2.7241905e+02 1.0019891e-01 
3.8583626e+00 -1.1802182e+02 -1.1167309e+00 
4.6449248e+00 -2.3645770e+02 -6.5882123e-01 
-2.8004621e+00 2.2919202e+00 7.3167909e+00 
2.2743419e+01 2.7283495e+02 -1.4435527e-01 
-5.1771534e+00 -2.1850878e+00 6.5135243e+00 
-2.3772764e+00 -2.3699253e+02 -4.0045236e-01 
-4.3579752e+01 -2.3811511e+02 1.1135541e+00 
-9.3556304e+00 -2.3750273e+02 -1.4292451e-01 
2.9903420e+01 2.7324993e+02 -3.8932982e-01 
6.3010436e+01 2.7228236e+02 -1.5025433e+00 
-7.0213502e+00 -5.5116073e+00 4.7894662e+00 
-3.3708744e+00 1.1855235e+00 7.4726251e+00 
-1.6370608e+01 -2.3799702e+02 1.1641760e-01 
3.7082442e+01 2.7366498e+02 -6.3460631e-01 
-4.9191610e+01 -2.3847752e+02 1.3289559e+00 
-2.3415163e+01 -2.3847373e+02 3.7736423e-01 
-5.7763507e+00 -3.2841712e+00 6.3765361e+00 
3.6262156e+01 1.4084279e+02 2.9576413e+00 
-3.9512732e+00 7.9900421e-02 7.5685007e+00 
4.4286248e+01 2.7408201e+02 -8.8044074e-01 
-3.7560065e-01 8.0447963e+00 6.5783891e+00 
-8.2095813e-01 6.8883777e+00 7.0159756e+00 
-3.0493833e+01 -2.3893263e+02 6.4000529e-01 
-1.2896446e+00 5.7584116e+00 7.3939664e+00 
-3.2829574e+01 -1.2260928e+02 3.7570266e+00 
5.1494987e+01 2.7450167e+02 -1.1262140e+00 
-1.7813545e+00 4.6319415e+00 7.7321894e+00 
-4.5377214e+00 -1.0261198e+00 7.5977440e+00 
-6.3655518e+00 -4.3865014e+00 6.1568590e+00 
-3.7586494e+01 -2.3937252e+02 9.0390240e-01 
-2.2940333e+00 3.5099735e+00 8.0242970e+00 
5.8917882e+01 2.7493051e+02 -1.3776594e+00 
2.8979504e+00 1.3727469e+02 -5.6138047e-01 
3.7442727e+00 -1.1868196e+02 -1.1233808e+00 
9.0258446e+00 2.7489289e+02 3.2490388e-01 
4.3569332e+00 -2.3778189e+02 -6.5318867e-01 
-2.8249863e+00 2.3911345e+00 8.2657789e+00 
-4.4887882e+01 -2.3980099e+02 1.1745694e+00 
1.6354602e+01 2.7531104e+02 6.9946297e-02 
-2.8123769e+00 -2.3832579e+02 -3.8667292e-01 
-5.1266829e+00 -2.1337129e+00 7.5529886e+00 
2.3621339e+01 2.7571856e+02 -1.8322949e-01 
-9.9354232e+00 -2.3884508e+02 -1.2110483e-01 
-6.9657247e+00 -5.5035656e+00 5.8165505e+00 
6.4651610e+01 2.7533744e+02 -1.5881882e+00 
3.0913602e+01 2.7612556e+02 -4.3674225e-01 
-3.3711725e+00 1.2742868e+00 8.4509070e+00 
-1.7094505e+01 -2.3934846e+02 1.4626374e-01 
-5.0605781e+01 -2.4017118e+02 1.3960160e+00 
3.8223964e+01 2.7653286e+02 -6.9046906e-01 
-2.4282303e+01 -2.3983427e+02 4.1520991e-01 
-5.7156125e+00 -3.2440896e+00 7.4257940e+00 
-3.9294376e+00 1.5827080e-01 8.5731651e+00 
3.7103461e+01 1.4244376e+02 3.2838530e+00 
-5.1936510e-01 8.1924725e+00 7.3475043e+00 
4.5558243e+01 2.7694214e+02 -9.4467634e-01 
-9.4055513e-01 7.0266856e+00 7.8200542e+00 
-3.1503448e+01 -2.4030222e+02 6.8582910e-01 
-3.3618296e+01 -1.2345588e+02 4.3091772e+00 
-1.3841056e+00 5.8873729e+00 8.2324257e+00 
-1.8499276e+00 4.7515355e+00 8.6056409e+00 
-6.3005861e+00 -4.3576366e+00 7.2107428e+00 
-4.4967786e+00 -9.5806572e-01 8.6252803e+00 
5.2896020e+01 2.7735389e+02 -1.1987268e+00 
-3.8737399e+01 -2.4075098e+02 9.5765356e-01 
-2.3366204e+00 3.6202075e+00 8.9324010e+00 
3.6303284e+00 -1.1919936e+02 -1.1288399e+00 
6.0450933e+01 2.7777460e+02 -1.4586174e+00 
4.0701070e+00 -2.3882004e+02 -6.4692745e-01 
-4.6183753e+01 -2.4118814e+02 1.2364631e+00 
-5.0705755e+00 -2.0758816e+00 8.5993482e+00 
-3.2442173e+00 -2.3937192e+02 -3.7225970e-01 
-2.8422009e+00 2.4920326e+00 9.2075014e+00 
3.1741483e+00 1.3862559e+02 -5.7700377e-01 
9.6339030e+00 2.7758816e+02 3.0203964e-01 
-1.0510002e+01 -2.3989922e+02 -9.8641103e-02 
1.7096921e+01 2.7799554e+02 3.8240244e-02 
-6.9028142e+00 -5.4853060e+00 6.8669816e+00 
2.4495094e+01 2.7839289e+02 -2.2356291e-01 
-1.7811384e+01 -2.4041058e+02 1.7677228e-01 
6.6277854e+01 2.7817179e+02 -1.6752676e+00 
-3.3644041e+00 1.3658916e+00 9.4245106e+00 
-5.2007177e+01 -2.4156408e+02 1.4640142e+00 
3.1917922e+01 2.7879012e+02 -4.8561419e-01 
-2.5140790e+01 -2.4090429e+02 4.5374574e-01 
-5.6491427e+00 -3.1963624e+00 8.4864295e+00 
3.9357810e+01 2.7918792e+02 -7.4778618e-01 
-3.9008886e+00 2.4064308e-01 9.5762449e+00 
3.7936788e+01 1.4393180e+02 3.6014608e+00 
-3.2502945e+01 -2.4137998e+02 7.3238106e-01 
-3.4395339e+01 -1.2414568e+02 4.8747257e+00 
-6.5949724e-01 8.3361131e+00 8.1016721e+00 
-1.0547992e+00 7.1620836e+00 8.6091255e+00 
4.6820648e+01 2.7958786e+02 -1.0103563e+00 
-1.4719915e+00 6.0145548e+00 9.0565596e+00 
-6.2293935e+00 -4.3199339e+00 8.2810361e+00 
-3.9876869e+01 -2.4183617e+02 1.0121811e+00 
-4.4494740e+00 -8.8484657e-01 9.6548101e+00 
-1.9111667e+00 4.8704825e+00 9.4660414e+00 
5.4285488e+01 2.7999028e+02 -1.2726699e+00 
-2.3715112e+00 3.7309295e+00 9.8292981e+00 
-4.7466920e+01 -2.4228043e+02 1.2991927e+00 
3.5165031e+00 -1.1957555e+02 -1.1330999e+00 
3.7843797e+00 -2.3957529e+02 -6.4003790e-01 
-3.6728850e+00 -2.4013415e+02 -3.5721794e-01 
-5.0083440e+00 -2.0117190e+00 9.6517470e+00 
6.1970357e+01 2.8040171e+02 -1.5409909e+00 
-2.8516752e+00 2.5945560e+00 1.0140394e+01 
-6.8326803e+00 -5.4570037e+00 7.9394342e+00 
-1.1079454e+01 -2.4066847e+02 -7.5543174e-02 
3.4500023e+00 1.3987497e+02 -5.9268223e-01 
1.0240626e+01 2.8007960e+02 2.7773060e-01 
1.7836348e+01 2.8047460e+02 5.0841587e-03 
-1.8521303e+01 -2.4118681e+02 2.0792842e-01 
-5.3395128e+01 -2.4266040e+02 1.5328978e+00 
-3.3500806e+00 1.4602611e+00 1.0392157e+01 
2.5364339e+01 2.8086011e+02 -2.6534544e-01 
6.7889007e+01 2.8078833e+02 -1.7637323e+00 
-5.5765624e+00 -3.1411339e+00 9.5576087e+00 
-2.5990619e+01 -2.4168736e+02 4.9295118e-01 
3.2916019e+01 2.8124592e+02 -5.3592882e-01 
-3.5160399e+01 -1.2468100e+02 5.4529019e+00 
-3.8651029e+00 3.2692199e-01 1.0576704e+01 
4.0483627e+01 2.8163265e+02 -8.0653406e-01 
-3.3492212e+01 -2.4216964e+02 7.7963377e-01 
3.8762137e+01 1.4530841e+02 3.9086615e+00 
-7.9587224e-01 8.4757380e+00 8.8374548e+00 
-1.1635292e+00 7.2945755e+00 9.3801603e+00 
4.8073135e+01 2.8202177e+02 -1.0774502e+00 
-6.1517696e+00 -4.2735575e+00 9.3668289e+00 
-1.5530873e+00 6.1399442e+00 9.8637418e+00 
-4.1004652e+01 -2.4263200e+02 1.0674494e+00 
-4.3952838e+00 -8.0657640e-01 1.0685487e+01 
-1.9647888e+00 4.9887524e+00 1.0311153e+01 
5.5663102e+01 2.8241355e+02 -1.3480058e+00 
-4.8736955e+01 -2.4308203e+02 1.3627129e+00 
-2.3983485e+00 3.8420918e+00 1.0713119e+01 
3.4027882e+00 -1.1981216e+02 -1.1361570e+00 
3.4997272e+00 -2.4005098e+02 -6.3252287e-01 
-4.0984102e+00 -2.4061594e+02 -3.4155588e-01 
-4.9395092e+00 -1.9413582e+00 1.0709465e+01 
-6.7553684e+00 -5.4188441e+00 9.0328014e+00 
6.3475909e+01 2.8281457e+02 -1.6247348e+00 
-1.1643802e+01 -2.4115643e+02 -5.1824405e-02 
-2.8529803e+00 2.6986389e+00 1.1062927e+01 
-5.4769032e+01 -2.4346463e+02 1.6026123e+00 
-1.9224253e+01 -2.4168085e+02 2.3971344e-01 
3.7253995e+00 1.4102381e+02 -6.0843780e-01 
1.0845766e+01 2.8236921e+02 2.5197511e-01 
1.8572590e+01 2.8275030e+02 -2.9517306e-02 
-3.3277139e+00 1.5573114e+00 1.1352626e+01 
-5.4974910e+00 -3.0785569e+00 1.0638661e+01 
6.9484856e+01 2.8318986e+02 -1.8535308e+00 
-2.6831722e+01 -2.4218731e+02 5.3280160e-01 
2.6228750e+01 2.8312243e+02 -3.0856598e-01 
-3.5913224e+01 -1.2506429e+02 6.0430519e+00 
3.3907554e+01 2.8349528e+02 -5.8766841e-01 
-3.4471095e+01 -2.4267520e+02 8.2755579e-01 
-3.8215559e+00 4.1700487e-01 1.1573587e+01 
4.1601076e+01 2.8386945e+02 -8.6668818e-01 
3.9579439e+01 1.4657500e+02 4.2036279e+00 
-9.2841070e-01 8.6113603e+00 9.5513691e+00 
-6.0674977e+00 -4.2186801e+00 1.0467405e+01 
-1.2666083e+00 7.4241580e+00 1.0130093e+01 
-4.2120479e+01 -2.4314267e+02 1.1234193e+00 
-1.6271859e+00 6.2635212e+00 1.0651321e+01 
4.9315383e+01 2.8424638e+02 -1.1459266e+00 
-4.3336802e+00 -7.2337679e-01 1.1716571e+01 
-2.0105082e+00 5.1063081e+00 1.1138729e+01 
-4.9993453e+01 -2.4359735e+02 1.4269749e+00 
5.7028564e+01 2.8462631e+02 -1.4246956e+00 
3.2891924e+00 -1.1991096e+02 -1.1380118e+00 
-2.4167651e+00 3.9536396e+00 1.1582002e+01 
3.2161651e+00 -2.4025066e+02 -6.2438838e-01 
-4.8635832e+00 -1.8649402e+00 1.1771917e+01 
-4.5207728e+00 -2.4082100e+02 -3.2528527e-01 
-6.6708996e+00 -5.3710211e+00 1.0146207e+01 
-1.2203011e+01 -2.4136689e+02 -2.7502003e-02 
-2.8456731e+00 2.8042086e+00 1.1973603e+01 
6.4967319e+01 2.8501586e+02 -1.7098022e+00 
-5.6128351e+01 -2.4398145e+02 1.6731011e+00 
-1.9920167e+01 -2.4189665e+02 2.7210453e-01 
4.0002226e+00 1.4207313e+02 -6.2429308e-01 
-3.2967995e+00 1.6569514e+00 1.2304749e+01 
1.1449073e+01 2.8445903e+02 2.2477305e-01 
-2.7663980e+01 -2.4240823e+02 5.7326815e-01 
-5.4115340e+00 -3.0087921e+00 1.1729079e+01 
1.9305361e+01 2.8482479e+02 -6.5558365e-02 
7.1065145e+01 2.8537905e+02 -1.9446099e+00 
-3.6653591e+01 -1.2529808e+02 6.6446479e+00 
2.7088016e+01 2.8518207e+02 -3.5321257e-01 
-3.5439403e+01 -2.4290089e+02 8.7611158e-01 
-3.7697052e+00 5.1078210e-01 1.2566019e+01 
3.4892202e+01 2.8554052e+02 -6.4081446e-01 
4.0388572e+01 1.4773293e+02 4.4844986e+00 
4.2709833e+01 2.8590074e+02 -9.2822326e-01 
-5.9763392e+00 -4.1554824e+00 1.1582247e+01 
-1.0570709e+00 8.7429865e+00 1.0239866e+01 
-4.3224069e+01 -2.4337260e+02 1.1800476e+00 
-1.3639154e+00 7.5508214e+00 1.0855802e+01 
-4.2641161e+00 -6.3537632e-01 1.2747430e+01 
-1.6940790e+00 6.3852594e+00 1.1416607e+01 
5.0547075e+01 2.8626417e+02 -1.2157529e+00 
-5.1236028e+01 -2.4383105e+02 1.4919273e+00 
-2.0480251e+00 5.2231058e+00 1.1946497e+01 
3.1757411e+00 -1.1987378e+02 -1.1386684e+00 
2.9337465e+00 -2.4017811e+02 -6.1564401e-01 
5.8381572e+01 2.8663107e+02 -1.5026995e+00 
-6.5792635e+00 -5.3137369e+00 1.1279019e+01 
-2.4263718e+00 4.0655116e+00 1.2434083e+01 
-4.9399074e+00 -2.4075322e+02 -3.0842170e-01 
-4.7800568e+00 -1.7826129e+00 1.2838653e+01 
-1.2756995e+01 -2.4130391e+02 -2.5972474e-03 
-5.7472599e+01 -2.4421573e+02 1.7443054e+00 
-2.8292834e+00 2.9111858e+00 1.2870942e+01 
-2.0608931e+01 -2.4183836e+02 3.0507464e-01 
6.6444298e+01 2.8700813e+02 -1.7961451e+00 
-2.8487233e+01 -2.4235442e+02 6.1431771e-01 
-5.3182718e+00 -2.9320069e+00 1.2828527e+01 
-3.2568027e+00 1.7590836e+00 1.3247404e+01 
-3.7381301e+01 -1.2538501e+02 7.2572955e+00 
4.2743500e+00 1.4302399e+02 -6.4027145e-01 
1.2050292e+01 2.8635123e+02 1.9612563e-01 
7.2629588e+01 2.8735849e+02 -2.0369147e+00 
2.0034381e+01 2.8670025e+02 -1.0303226e-01 
-3.6396917e+01 -2.4285117e+02 9.2526149e-01 
2.7941837e+01 2.8704129e+02 -3.9927248e-01 
-3.7089772e+00 6.0813754e-01 1.3553196e+01 
3.5869651e+01 2.8738395e+02 -6.9534788e-01 
-5.8780260e+00 -4.0841521e+00 1.2711049e+01 
-4.4315132e+01 -2.4332643e+02 1.2372877e+00 
4.1189370e+01 1.4878351e+02 4.7493655e+00 
-1.1818422e+00 8.8706176e+00 1.0899309e+01 
4.3809579e+01 2.8772888e+02 -9.9111341e-01 
-1.4553378e+00 7.6745502e+00 1.1554094e+01 
-4.1860127e+00 -5.4271014e-01 1.3777534e+01 
-1.7535485e+00 6.5051264e+00 1.2156849e+01 
-5.2464309e+01 -2.4378794e+02 1.5575154e+00 
5.1767895e+01 2.8807757e+02 -1.2868961e+00 
-2.0770166e+00 5.3390960e+00 1.2732149e+01 
3.0624755e+00 -1.1970260e+02 -1.1381343e+00 
-6.4804134e+00 -5.2472004e+00 1.2430857e+01 
2.6525585e+00 -2.3983733e+02 -6.0630315e-01 
-5.3557085e+00 -2.4041671e+02 -2.9098476e-01 
-4.6883884e+00 -1.6945307e+00 1.3909360e+01 
-2.4267466e+00 4.1776407e+00 1.3267483e+01 
5.9721816e+01 2.8843031e+02 -1.5819768e+00 
-5.8801332e+01 -2.4417252e+02 1.8161643e+00 
-1.3305627e+01 -2.4097170e+02 2.2864392e-02 
-2.8033026e+00 3.0194856e+00 1.3753478e+01 
-2.1290387e+01 -2.4151036e+02 3.3859244e-01 
6.7906544e+01 2.8879388e+02 -1.8837143e+00 
-2.9301286e+01 -2.4203036e+02 6.5591293e-01 
-5.2172513e+00 -2.8483759e+00 1.3936842e+01 
-3.8096172e+01 -1.2532776e+02 7.8807404e+00 
-3.2071478e+00 1.8636045e+00 1.4179509e+01 
4.5476557e+00 1.4387750e+02 -6.5639707e-01 
-3.7343395e+01 -2.4253069e+02 9.7496188e-01 
1.2649165e+01 2.8804802e+02 1.6603520e-01 
7.4177880e+01 2.8913068e+02 -2.1303892e+00 
2.0759372e+01 2.8837894e+02 -1.4193142e-01 
-3.6387557e+00 7.0894901e-01 1.4534387e+01 
2.8789920e+01 2.8870237e+02 -4.4673243e-01 
-5.7722536e+00 -4.0048838e+00 1.3853716e+01 
-4.5393370e+01 -2.4300896e+02 1.2950893e+00 
3.6839598e+01 2.8902789e+02 -7.5124914e-01 
4.1981631e+01 1.4972800e+02 4.9962629e+00 
-1.3027400e+00 8.9942494e+00 1.1525954e+01 
4.4900008e+01 2.8935623e+02 -1.0553324e+00 
-4.0987482e+00 -4.4551947e-01 1.4806458e+01 
-1.5407655e+00 7.7953235e+00 1.2221680e+01 
-5.3677941e+01 -2.4347299e+02 1.6236816e+00 
-1.8053602e+00 6.6230846e+00 1.2869226e+01 
5.2977534e+01 2.8968897e+02 -1.3593228e+00 
-2.0971290e+00 5.4542238e+00 1.3493329e+01 
-6.3742617e+00 -5.1716272e+00 1.3601606e+01 
2.9494515e+00 -1.1939948e+02 -1.1364197e+00 
2.3727201e+00 -2.3923248e+02 -5.9638317e-01 
-5.7680349e+00 -2.3981578e+02 -2.7299815e-01 
-4.5879941e+00 -1.6008543e+00 1.4983868e+01 
-6.0114143e+01 -2.4385695e+02 1.8886146e+00 
-2.4174264e+00 4.2899543e+00 1.4080300e+01 
6.1048988e+01 2.9002644e+02 -1.6624863e+00 
-1.3848743e+01 -2.4037471e+02 4.8853229e-02 
-2.1964342e+01 -2.4091718e+02 3.7262236e-01 
-2.7671741e+00 3.1290170e+00 1.4619747e+01 
6.9353744e+01 2.9037552e+02 -1.9724604e+00 
-3.8798024e+01 -1.2512908e+02 8.5148744e+00 
-3.0105915e+01 -2.4144076e+02 6.9801233e-01 
-5.1079776e+00 -2.7580793e+00 1.5054041e+01 
-3.1472070e+00 1.9704051e+00 1.5100020e+01 
-3.8278574e+01 -2.4194425e+02 1.0251652e+00 
7.5709699e+01 2.9069805e+02 -2.2249767e+00 
4.8200099e+00 1.4463480e+02 -6.7269503e-01 
1.3245425e+01 2.8955166e+02 1.3450506e-01 
-3.5583715e+00 8.1308872e-01 1.5508932e+01 
2.1480057e+01 2.8986314e+02 -1.8224768e-01 
-5.6586755e+00 -3.9178779e+00 1.5010382e+01 
-4.6458481e+01 -2.4242513e+02 1.3533985e+00 
2.9631977e+01 2.9016761e+02 -4.9557877e-01 
3.7801746e+01 2.9047467e+02 -8.0849849e-01 
4.2765122e+01 1.5056765e+02 5.2231547e+00 
-1.4198014e+00 9.1138727e+00 1.2115923e+01 
-4.0016492e+00 -3.4395114e-01 1.5833886e+01 
-1.6200857e+00 7.9131157e+00 1.2855159e+01 
-5.4876577e+01 -2.4289131e+02 1.6903654e+00 
4.5980816e+01 2.9078516e+02 -1.1208537e+00 
-1.8492572e+00 6.7390912e+00 1.3550824e+01 
-6.2606763e+00 -5.0872385e+00 1.4791428e+01 
-2.1079705e+00 5.5684290e+00 1.4227611e+01 
2.8367388e+00 -1.1896658e+02 -1.1335371e+00 
5.4175686e+01 2.9110073e+02 -1.4329992e+00 
2.0943793e+00 -2.3836796e+02 -5.8590546e-01 
-6.1410654e+01 -2.4327430e+02 1.9615911e+00 
-6.1767133e+00 -2.3895492e+02 -2.5448971e-01 
-4.4782399e+00 -1.5017500e+00 1.6062152e+01 
-2.3978989e+00 4.4023745e+00 1.4870596e+01 
-1.4386145e+01 -2.3951752e+02 7.5335400e-02 
6.2362776e+01 2.9142184e+02 -1.7441865e+00 
-2.2630576e+01 -2.4006356e+02 4.0712466e-01 
-2.7202849e+00 3.2396844e+00 1.5468287e+01 
-3.9486679e+01 -1.2479177e+02 9.1597412e+00 
-3.0900871e+01 -2.4059042e+02 7.4057038e-01 
-4.9899074e+00 -2.6613031e+00 1.6180330e+01 
7.0785581e+01 2.9175545e+02 -2.0623331e+00 
-3.0762927e+00 2.0793712e+00 1.6007922e+01 
-3.9202176e+01 -2.4109682e+02 1.0758200e+00 
7.7224717e+01 2.9206298e+02 -2.3206200e+00 
5.0912783e+00 1.4529706e+02 -6.8919145e-01 
-3.4670946e+00 9.2042374e-01 1.6476240e+01 
-5.5368981e+00 -3.8233403e+00 1.6181413e+01 
1.3838803e+01 2.9086452e+02 1.0153918e-01 
-4.7510157e+01 -2.4158005e+02 1.4121582e+00 
2.2196158e+01 2.9115520e+02 -2.2397245e-01 
3.0467723e+01 2.9143936e+02 -5.4579765e-01 
3.8755804e+01 2.9172663e+02 -8.6707611e-01 
-5.6059882e+01 -2.4204812e+02 1.7575037e+00 
-3.8939817e+00 -2.3815714e-01 1.6859610e+01 
4.3539588e+01 1.5130363e+02 5.4279216e+00 
-1.5330813e+00 9.2294744e+00 1.2665182e+01 
-1.6931786e+00 8.0278968e+00 1.3450993e+01 
4.7051705e+01 2.9201799e+02 -1.1876510e+00 
-6.1394775e+00 -4.9942609e+00 1.6000767e+01 
-1.8849546e+00 6.8530993e+00 1.4198620e+01 
2.7244201e+00 -1.1840615e+02 -1.1295011e+00 
1.8177114e+00 -2.3724832e+02 -5.7489538e-01 
-2.1091051e+00 5.6816472e+00 1.4932494e+01 
-6.2690511e+01 -2.4242991e+02 2.0350263e+00 
-4.3584335e+00 -1.3973889e+00 1.7144337e+01 
-6.5815415e+00 -2.3783879e+02 -2.3549133e-01 
5.5362045e+01 2.9231521e+02 -1.5078918e+00 
-1.4917607e+01 -2.3840491e+02 1.0227296e-01 
-2.3675956e+00 4.5148192e+00 1.5636387e+01 
-2.3288838e+01 -2.3895434e+02 4.4205559e-01 
6.3662868e+01 2.9261886e+02 -1.8270362e+00 
-2.6619578e+00 3.3513874e+00 1.6297620e+01 
-4.0161951e+01 -1.2431866e+02 9.8155420e+00 
-3.1685881e+01 -2.3948434e+02 7.8353766e-01 
-4.8624427e+00 -2.5582382e+00 1.7316113e+01 
7.2201733e+01 2.9293599e+02 -2.1532825e+00 
-2.9936486e+00 2.1903838e+00 1.6902233e+01 
-4.0113909e+01 -2.3999348e+02 1.1268715e+00 
-5.4064755e+00 -3.7214818e+00 1.7367423e+01 
-4.8548085e+01 -2.4047890e+02 1.4713080e+00 
-3.3641249e+00 1.0308165e+00 1.7435790e+01 
7.8722596e+01 2.9322779e+02 -2.4172619e+00 
5.3613229e+00 1.4586551e+02 -7.0591365e-01 
1.4429023e+01 2.9198900e+02 6.7142055e-02 
2.2907397e+01 2.9225752e+02 -2.6709697e-01 
3.1296876e+01 2.9252001e+02 -5.9737527e-01 
-5.7227529e+01 -2.4094873e+02 1.8250304e+00 
-3.7749434e+00 -1.2829414e-01 1.7883534e+01 
4.4304751e+01 1.5193714e+02 5.6083472e+00 
-1.6426504e+00 9.3410372e+00 1.3169514e+01 
3.9701482e+01 2.9278615e+02 -9.2696236e-01 
-1.7599133e+00 8.1396327e+00 1.4005487e+01 
-6.0104349e+00 -4.8929258e+00 1.7230370e+01 
-1.9121346e+00 6.9650578e+00 1.4809462e+01 
4.8112380e+01 2.9305710e+02 -1.2556981e+00 
2.6125903e+00 -1.1772054e+02 -1.1243276e+00 
-6.3953377e+01 -2.4132920e+02 2.1088509e+00 
1.5429169e+00 -2.3587828e+02 -5.6338221e-01 
-2.1000467e+00 5.7938098e+00 1.5605378e+01 
-6.9822907e+00 -2.3647221e+02 -2.1603883e-01 
-4.2278179e+00 -1.2879473e+00 1.8230709e+01 
5.6536311e+01 2.9333475e+02 -1.5839671e+00 
-1.5442876e+01 -2.3704179e+02 1.2962402e-01 
-2.3258849e+00 4.6272018e+00 1.6375631e+01 
-2.3938856e+01 -2.3759454e+02 4.7736752e-01 
-4.0823645e+01 -1.2371261e+02 1.0482642e+01 
6.4948955e+01 2.9361980e+02 -1.9109939e+00 
-2.5914442e+00 3.4640214e+00 1.7106255e+01 
-3.2460656e+01 -2.3812761e+02 8.2686110e-01 
-4.7249240e+00 -2.4490803e+00 1.8461998e+01 
-2.8984422e+00 2.3033201e+00 1.7781992e+01 
-4.1013466e+01 -2.3863942e+02 1.1782613e+00 
7.3601880e+01 2.9391945e+02 -2.2452586e+00 
-5.2669048e+00 -3.6125181e+00 1.8569283e+01 
-4.9571949e+01 -2.3912697e+02 1.5307845e+00 
-3.2485849e+00 1.1441250e+00 1.8387132e+01 
8.0203001e+01 2.9419478e+02 -2.5148452e+00 
5.6300019e+00 1.4634138e+02 -7.2289029e-01 
1.5015801e+01 2.9292758e+02 3.1318395e-02 
2.3613493e+01 2.9317253e+02 -3.1161251e-01 
-5.8379191e+01 -2.3959854e+02 1.8928770e+00 
3.2119151e+01 2.9341196e+02 -6.5029805e-01 
-3.6436559e+00 -1.4523155e-02 1.8905682e+01 
4.5060314e+01 1.5246931e+02 5.7621031e+00 
-5.8732644e+00 -4.7834689e+00 1.8481292e+01 
-1.7485923e+00 9.4485405e+00 1.3624495e+01 
4.0638495e+01 2.9365561e+02 -9.8813801e-01 
-1.8201444e+00 8.2482858e+00 1.4514763e+01 
-1.9304419e+00 7.0749117e+00 1.5380050e+01 
-6.5198927e+01 -2.3997766e+02 2.1829933e+00 
2.5013563e+00 -1.1691215e+02 -1.1180339e+00 
1.2702207e+00 -2.3426271e+02 -5.5139898e-01 
4.9162550e+01 2.9390482e+02 -1.3249693e+00 
-7.3787076e+00 -2.3486013e+02 -1.9617185e-01 
-4.0855631e+00 -1.1736054e+00 1.9321721e+01 
-2.0802528e+00 5.9048444e+00 1.6243554e+01 
-1.5961677e+01 -2.3543318e+02 1.5734291e-01 
5.7698183e+01 2.9416166e+02 -1.6611922e+00 
-2.2720655e+00 4.7394322e+00 1.7086214e+01 
-2.4580336e+01 -2.3598929e+02 5.1300913e-01 
-4.1471550e+01 -1.2297650e+02 1.1161578e+01 
-2.5079164e+00 3.5774779e+00 1.7892673e+01 
6.6220725e+01 2.9442699e+02 -1.9960190e+00 
-3.3224887e+01 -2.3652543e+02 8.7048410e-01 
-4.5766246e+00 -2.3340295e+00 1.9618815e+01 
-4.1900531e+01 -2.3703994e+02 1.2299279e+00 
-2.7897569e+00 2.4180529e+00 1.8646263e+01 
7.4985699e+01 2.9470809e+02 -2.3382120e+00 
-5.1176216e+00 -3.4966689e+00 1.9788134e+01 
-5.0581426e+01 -2.3752966e+02 1.5905215e+00 
-3.1195116e+00 1.2602036e+00 1.9329886e+01 
8.1665592e+01 2.9496617e+02 -2.6133131e+00 
-5.9514548e+01 -2.3800300e+02 1.9609729e+00 
5.8971690e+00 1.4672598e+02 -7.4015158e-01 
1.5598849e+01 2.9368283e+02 -5.9270625e-03 
2.4314161e+01 2.9390275e+02 -3.5751060e-01 
-3.4991570e+00 1.0299090e-01 1.9926200e+01 
-5.7276254e+00 -4.6661303e+00 1.9754913e+01 
3.2934265e+01 2.9411768e+02 -7.0455288e-01 
4.5805964e+01 1.5290128e+02 5.8867339e+00 
-1.8510019e+00 9.5519601e+00 1.4025459e+01 
-1.8737085e+00 8.3538151e+00 1.4974737e+01 
4.1566554e+01 2.9433743e+02 -1.0505844e+00 
-6.6426847e+01 -2.3838082e+02 2.2573803e+00 
2.3908364e+00 -1.1598349e+02 -1.1106381e+00 
-1.9394784e+00 7.1826030e+00 1.5906912e+01 
9.9987078e-01 -2.3240665e+02 -5.3898233e-01 
-7.7705154e+00 -2.3300765e+02 -1.7593366e-01 
-3.9307595e+00 -1.0545477e+00 2.0418000e+01 
5.0201921e+01 2.9456354e+02 -1.3954395e+00 
-2.0491193e+00 6.0146754e+00 1.6844185e+01 
-1.6473710e+01 -2.3358426e+02 1.8538036e-01 
-4.2105435e+01 -1.2211325e+02 1.1853063e+01 
5.8847361e+01 2.9479828e+02 -1.7395349e+00 
-2.5212963e+01 -2.3414380e+02 5.4892563e-01 
-2.2053594e+00 4.8514168e+00 1.7765944e+01 
-4.4167440e+00 -2.2132897e+00 2.0787619e+01 
-3.3978250e+01 -2.3468312e+02 9.1434674e-01 
-2.4104599e+00 3.6916452e+00 1.8655324e+01 
6.7477871e+01 2.9504269e+02 -2.0820713e+00 
-4.2774774e+01 -2.3520042e+02 1.2818065e+00 
-2.6665838e+00 2.5344519e+00 1.9494129e+01 
7.6352866e+01 2.9530416e+02 -2.4320940e+00 
-4.9579942e+00 -3.3741580e+00 2.1025403e+01 
-5.1576186e+01 -2.3569241e+02 1.6504500e+00 
-2.9758477e+00 1.3789029e+00 2.0263747e+01 
8.3110030e+01 2.9554420e+02 -2.7126095e+00 
-6.0633277e+01 -2.3616765e+02 2.0292448e+00 
6.1626738e+00 1.4702064e+02 -7.5772942e-01 
-3.3403921e+00 2.2407953e-01 2.0945363e+01 
1.6177869e+01 2.9425736e+02 -4.4589794e-02 
-5.5731175e+00 -4.5411539e+00 2.1052957e+01 
2.5009111e+01 2.9445074e+02 -4.0478323e-01 
4.6541370e+01 1.5323416e+02 5.9796399e+00 
3.3741932e+01 2.9463967e+02 -7.6012734e-01 
-1.9499844e+00 9.6512693e+00 1.4367474e+01 
-6.7636831e+01 -2.3654427e+02 2.3319369e+00 
-1.9204209e+00 8.4561769e+00 1.5381090e+01 
2.2811601e+00 -1.1493710e+02 -1.1021588e+00 
4.2485374e+01 2.9483404e+02 -1.1142836e+00 
7.3213791e-01 -2.3031523e+02 -5.2617233e-01 
-1.9387992e+00 7.2880707e+00 1.6386387e+01 
-8.1574143e+00 -2.3091998e+02 -1.5537095e-01 
-3.7624101e+00 -9.3096204e-01 2.1520360e+01 
-1.6978655e+01 -2.3150030e+02 2.1368372e-01 
-2.0059739e+00 6.1232241e+00 1.7404288e+01 
5.1230203e+01 2.9503564e+02 -1.4670845e+00 
-4.2725051e+01 -1.2112578e+02 1.2557998e+01 
-2.5836403e+01 -2.3206343e+02 5.8505893e-01 
-2.1249049e+00 4.9630590e+00 1.8412533e+01 
5.9983548e+01 2.9524694e+02 -1.8189639e+00 
-3.4720403e+01 -2.3260608e+02 9.5838603e-01 
-4.2444008e+00 -2.0870685e+00 2.1969713e+01 
-2.2980656e+00 3.8064083e+00 1.9392618e+01 
6.8720082e+01 2.9546920e+02 -2.1691118e+00 
-4.3635852e+01 -2.3312632e+02 1.3338298e+00 
-2.5278130e+00 2.6523836e+00 2.0324689e+01 
7.7703059e+01 2.9570989e+02 -2.5268565e+00 
-4.7873190e+00 -3.2452130e+00 2.2282820e+01 
-5.2555895e+01 -2.3362074e+02 1.7104987e+00 
-2.8164335e+00 1.5000704e+00 2.1188487e+01 
-6.1735055e+01 -2.3409805e+02 2.0976176e+00 
8.4535976e+01 2.9593104e+02 -2.8126789e+00 
-5.4092773e+00 -4.4087873e+00 2.2377506e+01 
-3.1662056e+00 3.4857097e-01 2.1963583e+01 
6.4263609e+00 1.4722673e+02 -7.7565768e-01 
1.6752556e+01 2.9465388e+02 -8.4665704e-02 
-6.8828574e+01 -2.3447363e+02 2.4065863e+00 
2.5698047e+01 2.9481913e+02 -4.5342312e-01 
4.7266186e+01 1.5346904e+02 6.0380597e+00 
-2.0456536e+00 9.7464383e+00 1.4645304e+01 
3.4541861e+01 2.9498047e+02 -8.1700986e-01 
-1.9600730e+00 8.5553244e+00 1.5729242e+01 
2.1724683e+00 -1.1377563e+02 -1.0926149e+00 
4.6731553e-01 -2.2799373e+02 -5.1301223e-01 
-8.5390825e+00 -2.2860243e+02 -1.3453365e-01 
-3.5794220e+00 -8.0303973e-01 2.2629812e+01 
-1.9279071e+00 7.3912510e+00 1.6814596e+01 
4.3394665e+01 2.9514792e+02 -1.1792189e+00 
-1.7476171e+01 -2.2918667e+02 2.4219715e-01 
-4.3330120e+01 -1.2001704e+02 1.3277477e+01 
-1.9500698e+00 6.2304091e+00 1.7920719e+01 
5.2247104e+01 2.9532352e+02 -1.5398813e+00 
-2.6450301e+01 -2.2975359e+02 6.2134786e-01 
-2.0297489e+00 5.0742596e+00 1.9023586e+01 
6.1106443e+01 2.9550998e+02 -1.8994490e+00 
-4.0586259e+00 -1.9555770e+00 2.3166656e+01 
-3.5450987e+01 -2.3029977e+02 1.0025360e+00 
-2.1696215e+00 3.9216498e+00 2.0102918e+01 
-4.4483410e+01 -2.3082317e+02 1.3859277e+00 
6.9947049e+01 2.9570878e+02 -2.2571022e+00 
-2.3722247e+00 2.7717117e+00 2.1137059e+01 
-4.6048139e+00 -3.1100647e+00 2.3562431e+01 
-5.3520209e+01 -2.3132022e+02 1.7705938e+00 
7.9035954e+01 2.9592750e+02 -2.6224526e+00 
-2.6399966e+00 1.6235509e+00 2.2103954e+01 
-6.2819555e+01 -2.3179983e+02 2.1660143e+00 
8.5943089e+01 2.9612887e+02 -2.9134668e+00 
-5.2355741e+00 -4.2692815e+00 2.3731019e+01 
-2.9753321e+00 4.7629050e-01 2.2981414e+01 
-7.0001772e+01 -2.3217456e+02 2.4812505e+00 
6.6880691e+00 1.4734567e+02 -7.9397236e-01 
1.7322595e+01 2.9487517e+02 -1.2615133e-01 
2.6380667e+01 2.9501060e+02 -5.0342386e-01 
4.7980045e+01 1.5360699e+02 6.0590508e+00 
-2.1381319e+00 9.8374350e+00 1.4853376e+01 
2.0649130e+00 -1.1250174e+02 -1.0820252e+00 
2.0571991e-01 -2.2544754e+02 -4.9954828e-01 
-1.9924288e+00 8.6512088e+00 1.6014320e+01 
3.5333755e+01 2.9514270e+02 -8.7519001e-01 
-8.9151751e+00 -2.2606044e+02 -1.1347470e-01 
-3.3805978e+00 -6.7097516e-01 2.3747576e+01 
-1.9062481e+00 7.4920778e+00 1.7187423e+01 
4.4294132e+01 2.9528159e+02 -1.2453747e+00 
-4.3920343e+01 -1.1878998e+02 1.4012803e+01 
-1.7965893e+01 -2.2664884e+02 2.7086180e-01 
-1.8805793e+00 6.3361469e+00 1.8390149e+01 
-2.7054285e+01 -2.2721979e+02 6.5772836e-01 
5.3252325e+01 2.9542963e+02 -1.6138081e+00 
-1.9188386e+00 5.1849170e+00 1.9596587e+01 
-3.8583544e+00 -1.8190293e+00 2.4380281e+01 
-3.6169629e+01 -2.2776975e+02 1.0467282e+00 
6.2215743e+01 2.9558975e+02 -1.9809612e+00 
-2.0239029e+00 4.0372495e+00 2.0784530e+01 
-4.5317082e+01 -2.2829655e+02 1.4380276e+00 
7.1158458e+01 2.9576371e+02 -2.3460057e+00 
-2.1984793e+00 2.8922975e+00 2.1930365e+01 
-4.4096131e+00 -2.9689475e+00 2.4866624e+01 
-5.4468771e+01 -2.2879649e+02 1.8306594e+00 
8.0351225e+01 2.9595917e+02 -2.7188366e+00 
-2.4451430e+00 1.7491862e+00 2.3010081e+01 
-6.3886445e+01 -2.2927865e+02 2.2343559e+00 
8.7331028e+01 2.9613982e+02 -3.0149198e+00 
-5.0514068e+00 -4.1228909e+00 2.5116357e+01 
-2.7663857e+00 6.0706071e-01 2.3999565e+01 
-7.1156123e+01 -2.2965275e+02 2.5558499e+00 
6.9476309e+00 1.4737893e+02 -8.1271182e-01 
1.7887658e+01 2.9492411e+02 -1.6904403e-01 
4.8682564e+01 1.5364910e+02 6.0394692e+00 
-2.2275490e+00 9.9242250e+00 1.4985741e+01 
1.9586583e+00 -1.1111818e+02 -1.0704082e+00 
2.7056658e+01 2.9502793e+02 -5.5478014e-01 
-5.2309358e-02 -2.2268215e+02 -4.8582949e-01 
-2.0172218e+00 8.7437787e+00 1.6231126e+01 
-9.2853242e+00 -2.2329952e+02 -9.2249805e-02 
-3.1646262e+00 -5.3496551e-01 2.4875096e+01 
3.6117311e+01 2.9512901e+02 -9.3465860e-01 
-4.4495388e+01 -1.1744758e+02 1.4765493e+01 
-1.8732055e+00 7.5904829e+00 1.7500482e+01 
-1.8447436e+01 -2.2389236e+02 2.9961610e-01 
4.5183475e+01 2.9523762e+02 -1.3127366e+00 
-1.7965861e+00 6.4403516e+00 1.8809047e+01 
-2.7647959e+01 -2.2446762e+02 6.9413372e-01 
5.4245568e+01 2.9535641e+02 -1.6888445e+00 
-1.7910132e+00 5.2949273e+00 2.0128886e+01 
-3.6875934e+01 -2.2502162e+02 1.0908913e+00 
-3.6424176e+00 -1.6776428e+00 2.5612713e+01 
6.3311143e+01 2.9548861e+02 -2.0634731e+00 
-1.8595632e+00 4.1530854e+00 2.1435701e+01 
-4.6136482e+01 -2.2555211e+02 1.4900547e+00 
7.2353993e+01 2.9563627e+02 -2.4357869e+00 
-2.0051072e+00 3.0139998e+00 2.2703748e+01 
-4.2007595e+00 -2.8220987e+00 2.6198144e+01 
-5.5401219e+01 -2.2605521e+02 1.8906177e+00 
8.1648541e+01 2.9580711e+02 -2.8159640e+00 
-2.2303450e+00 1.8768163e+00 2.3906886e+01 
-6.4935384e+01 -2.2654022e+02 2.3025621e+00 
-4.8560985e+00 -3.9698732e+00 2.6536807e+01 
8.8699445e+01 2.9596602e+02 -3.1169857e+00 
-2.5378499e+00 7.4070172e-01 2.5018905e+01 
-7.2291318e+01 -2.2691391e+02 2.6303038e+00 
1.8538797e+00 -1.0962774e+02 -1.0577819e+00 
7.2048712e+00 1.4732802e+02 -8.3191702e-01 
1.8447402e+01 2.9480365e+02 -2.1334215e-01 
4.9373338e+01 1.5359642e+02 5.9759470e+00 
-3.0640859e-01 -2.1970315e+02 -4.7190732e-01 
-2.3140421e+00 1.0006772e+01 1.5036035e+01 
2.7725695e+01 2.9487395e+02 -6.0748792e-01 
-9.6491378e+00 -2.2032529e+02 -7.0917242e-02 
-2.9300723e+00 -3.9521061e-01 2.6014051e+01 
-2.0341519e+00 8.8329809e+00 1.6374102e+01 
-4.5054892e+01 -1.1599282e+02 1.5537297e+01 
3.6892216e+01 2.9494213e+02 -9.9540792e-01 
-1.8920390e+01 -2.2092285e+02 3.2839594e-01 
-1.8280945e+00 7.6863961e+00 1.7749094e+01 
4.6062387e+01 2.9501860e+02 -1.3812921e+00 
-2.8230908e+01 -2.2150272e+02 7.3049477e-01 
-1.6970780e+00 6.5429356e+00 1.9173657e+01 
5.5226523e+01 2.9510637e+02 -1.7649718e+00 
-3.7569489e+01 -2.2206108e+02 1.1349520e+00 
-3.4095339e+00 -1.5316373e+00 2.6866392e+01 
-1.6449945e+00 5.4041851e+00 2.0617685e+01 
6.4392328e+01 2.9520897e+02 -2.1469587e+00 
-4.6941210e+01 -2.2259554e+02 1.5419322e+00 
-1.6751236e+00 4.2690333e+00 2.2054603e+01 
-3.9771981e+00 -2.6697588e+00 2.7560122e+01 
7.3533332e+01 2.9532874e+02 -2.5264116e+00 
-5.6317173e+01 -2.2310211e+02 1.9503891e+00 
-1.7904969e+00 3.1366759e+00 2.3456354e+01 
8.2927567e+01 2.9547352e+02 -2.9137917e+00 
-6.5966026e+01 -2.2359027e+02 2.3705510e+00 
-1.9939310e+00 2.0062788e+00 2.4794479e+01 
-4.6488923e+00 -3.8104891e+00 2.7996106e+01 
9.0047988e+01 2.9560960e+02 -3.2196133e+00 
-7.3407048e+01 -2.2396378e+02 2.7045305e+00 
-2.2880662e+00 8.7703142e-01 2.6040479e+01 
1.7507656e+00 -1.0803325e+02 -1.0441633e+00 
-5.5618902e-01 -2.1651622e+02 -4.5783552e-01 
-4.5598460e+01 -1.1442869e+02 1.6330208e+01 
5.0051938e+01 1.5345000e+02 5.8648689e+00 
-1.0006199e+01 -2.1714344e+02 -4.9537579e-02 
7.4596058e+00 1.4719451e+02 -8.5163175e-01 
-2.6753663e+00 -2.5191270e-01 2.7166378e+01 
-2.3977554e+00 1.0085036e+01 1.4997434e+01 
1.9001471e+01 2.9451685e+02 -2.5904520e-01 
-2.0428820e+00 8.9187604e+00 1.6437294e+01 
2.8387440e+01 2.9455160e+02 -6.6154458e-01 
-1.9384322e+01 -2.1774604e+02 3.5713487e-01 
-1.7701564e+00 7.7797456e+00 1.7928253e+01 
3.7658143e+01 2.9458486e+02 -1.0574319e+00 
-2.8802692e+01 -2.1833082e+02 7.6674009e-01 
-1.5809387e+00 6.6438098e+00 1.9479976e+01 
4.6930548e+01 2.9462720e+02 -1.4510303e+00 
-3.8249861e+01 -2.1889384e+02 1.1788348e+00 
-3.1582994e+00 -1.3812355e+00 2.8144088e+01 
-1.4793770e+00 5.5125833e+00 2.1060017e+01 
5.6194873e+01 2.9468204e+02 -1.8421730e+00 
-4.7730848e+01 -2.1943259e+02 1.5935811e+00 
-1.4689612e+00 4.3849679e+00 2.2639330e+01 
6.5458978e+01 2.9475322e+02 -2.2313940e+00 
-3.7377681e+00 -2.5121709e+00 2.8956099e+01 
-5.7216239e+01 -2.1994293e+02 2.0098924e+00 
-1.5528841e+00 3.2601810e+00 2.4187340e+01 
7.4696144e+01 2.9484343e+02 -2.6178477e+00 
-6.6978011e+01 -2.2043456e+02 2.4382395e+00 
-1.7340723e+00 2.1374095e+00 2.5673066e+01 
8.4187959e+01 2.9496057e+02 -3.0122783e+00 
-4.4289459e+00 -3.6450025e+00 2.9498475e+01 
-7.4502994e+01 -2.2080813e+02 2.7784475e+00 
-2.0152216e+00 1.0158657e+00 2.7065514e+01 
9.1376299e+01 2.9507266e+02 -3.3227531e+00 
1.6495172e+00 -1.0633761e+02 -1.0295681e+00 
-8.0123565e-01 -2.1312715e+02 -4.4366977e-01 
-4.6125659e+01 -1.1275819e+02 1.7146480e+01 
-1.0356063e+01 -2.1375975e+02 -2.8173433e-02 
-2.3987925e+00 -1.0527635e-01 2.8334284e+01 
5.0717911e+01 1.5321089e+02 5.7023464e+00 
-2.4788407e+00 1.0158979e+01 1.4862606e+01 
7.7116402e+00 1.4698002e+02 -8.7190283e-01 
-1.9838770e+01 -2.1436768e+02 3.8576441e-01 
-2.0430349e+00 9.0010603e+00 1.6414312e+01 
1.9549484e+01 2.9406689e+02 -3.0615393e-01 
2.9041535e+01 2.9406388e+02 -7.1694904e-01 
-1.6985521e+00 7.8704581e+00 1.8032600e+01 
-2.9362847e+01 -2.1495769e+02 8.0279624e-01 
3.8414752e+01 2.9406005e+02 -1.1207261e+00 
-1.4469391e+00 6.7428834e+00 1.9723729e+01 
4.7787626e+01 2.9406615e+02 -1.5219421e+00 
-3.8916591e+01 -2.1552569e+02 1.2224622e+00 
-2.8871777e+00 -1.2266626e+00 2.9448929e+01 
-1.2926174e+00 5.6200132e+00 2.1452735e+01 
5.7150288e+01 2.9408600e+02 -1.9204331e+00 
-4.8504958e+01 -2.1606904e+02 1.6449210e+00 
-1.2392983e+00 4.5007619e+00 2.3187885e+01 
6.6510760e+01 2.9412381e+02 -2.3167566e+00 
-3.4811946e+00 -2.3495814e+00 3.0390054e+01 
-5.8098009e+01 -2.1658347e+02 2.0690447e+00 
-1.2903383e+00 3.3843690e+00 2.4895866e+01 
7.5842088e+01 2.9418265e+02 -2.7100646e+00 
-6.7970967e+01 -2.1707889e+02 2.5055433e+00 
-1.4487706e+00 2.2700426e+00 2.6542953e+01 
8.5429364e+01 2.9427047e+02 -3.1113838e+00 
-4.1953255e+00 -3.4736805e+00 3.1048647e+01 
-7.5578829e+01 -2.1745272e+02 2.8519712e+00 
-1.7173364e+00 1.1570183e+00 2.8095435e+01 
9.2684004e+01 2.9435730e+02 -3.4263566e+00 
-4.6636019e+01 -1.1098432e+02 1.7988646e+01 
1.5503493e+00 -1.0454374e+02 -1.0140108e+00 
-1.0411059e+00 -2.0954178e+02 -4.2946743e-01 
-1.0698258e+01 -2.1018006e+02 -6.8891965e-03 
-2.0984774e+00 4.4491708e-02 2.9520265e+01 
5.1370777e+01 1.5288012e+02 5.4841899e+00 
-2.5574568e+00 1.0228556e+01 1.4623662e+01 
-2.0283248e+01 -2.1079363e+02 4.1421423e-01 
-2.0341894e+00 9.0798222e+00 1.6298286e+01 
7.9607672e+00 1.4668626e+02 -8.9278031e-01 
2.0091040e+01 2.9345705e+02 -3.5467047e-01 
-1.6123553e+00 7.9584586e+00 1.8056380e+01 
-2.9910881e+01 -2.1138918e+02 8.3858798e-01 
2.9687603e+01 2.9341392e+02 -7.7370191e-01 
3.9161681e+01 2.9337067e+02 -1.1852881e+00 
-1.2937282e+00 6.8400645e+00 1.9900344e+01 
-3.9569199e+01 -2.1196246e+02 1.2657550e+00 
-2.5944891e+00 -1.0681463e+00 3.0784425e+01 
4.8633272e+01 2.9333824e+02 -1.5940204e+00 
-1.0830239e+00 5.7263653e+00 2.1792494e+01 
-4.9263079e+01 -2.1251072e+02 1.6958698e+00 
5.8092424e+01 2.9332089e+02 -1.9997390e+00 
-9.8418926e-01 4.6162872e+00 2.3698174e+01 
-3.2060796e+00 -2.1822390e+00 3.1866435e+01 
6.7547328e+01 2.9332323e+02 -2.4030263e+00 
-5.8962053e+01 -2.1302953e+02 2.1277622e+00 
-1.0007501e+00 3.5090925e+00 2.5581100e+01 
7.6970811e+01 2.9334874e+02 -2.8030337e+00 
-6.8944507e+01 -2.1352905e+02 2.5723772e+00 
-1.1358446e+00 2.4040107e+00 2.7404557e+01 
-3.9470001e+00 -3.2967932e+00 3.2651909e+01 
8.6651415e+01 2.9340543e+02 -3.2110701e+00 
-7.6634219e+01 -2.1390336e+02 2.9250179e+00 
-1.3922507e+00 1.3003016e+00 2.9131877e+01 
9.3970723e+01 2.9346562e+02 -3.5303771e+00 
-4.7129024e+01 -1.0911010e+02 1.8859536e+01 
1.4534911e+00 -1.0265463e+02 -9.9750389e-01 
-1.2753282e+00 -2.0576607e+02 -4.1528720e-01 
-1.1032284e+01 -2.0641032e+02 1.4249263e-02 
-1.7723764e+00 1.9718264e-01 3.0727131e+01 
5.2010023e+01 1.5245875e+02 5.2058793e+00 
-2.0717238e+01 -2.0702981e+02 4.4241247e-01 
-2.6337708e+00 1.0293725e+01 1.4272101e+01 
-2.0158766e+00 9.1549860e+00 1.6081823e+01 
8.2067652e+00 1.4631496e+02 -9.1431770e-01 
-3.0446275e+01 -2.0763117e+02 8.7403851e-01 
2.0625708e+01 2.9269072e+02 -4.0459837e-01 
-1.5105461e+00 8.0436712e+00 1.7993413e+01 
3.0325239e+01 2.9260495e+02 -8.3180548e-01 
-1.1198237e+00 6.9352602e+00 2.0004923e+01 
3.9898546e+01 2.9251975e+02 -1.2511173e+00 
-4.0207175e+01 -2.0821003e+02 1.3086326e+00 
-2.2783994e+00 -9.0591691e-01 3.2154497e+01 
4.9467113e+01 2.9244631e+02 -1.6672601e+00 
-8.4874456e-01 5.8315288e+00 2.2075730e+01 
-5.0004723e+01 -2.0876350e+02 1.7463442e+00 
5.9020915e+01 2.9238938e+02 -2.0800797e+00 
-7.0150805e-01 4.7314146e+00 2.4167998e+01 
-2.9108930e+00 -2.0103959e+00 3.3390196e+01 
-5.9807921e+01 -2.0928698e+02 2.1859597e+00 
6.8568316e+01 2.9235400e+02 -2.4901847e+00 
-6.8181736e-01 3.6342028e+00 2.6242212e+01 
-6.9898228e+01 -2.0979090e+02 2.6386551e+00 
7.8081943e+01 2.9234407e+02 -2.8967281e+00 
-7.9291543e-01 2.5391451e+00 2.8258409e+01 
-3.6828344e+00 -3.1146140e+00 3.4314137e+01 
8.7853731e+01 2.9236766e+02 -3.3113007e+00 
-7.7668812e+01 -2.1016584e+02 2.9975032e+00 
-1.0376100e+00 1.4455260e+00 3.0176703e+01 
9.5236055e+01 2.9239973e+02 -3.6347691e+00 
-4.7604118e+01 -1.0713852e+02 1.9762300e+01 
1.3591868e+00 -1.0067330e+02 -9.8005799e-01 
-1.5034006e+00 -2.0180605e+02 -4.0118878e-01 
-1.1357607e+01 -2.0245651e+02 3.5174931e-02 
-1.4182611e+00 3.5258554e-01 3.1958028e+01 
-2.1140192e+01 -2.0308217e+02 4.7028604e-01 
5.2635101e+01 1.5194781e+02 4.8625314e+00 
-2.7079581e+00 1.0354438e+01 1.3798752e+01 
-1.9875766e+00 9.2264900e+00 1.5756956e+01 
-3.0968479e+01 -2.0368962e+02 9.0906976e-01 
-1.3920034e+00 8.1260185e+00 1.7837053e+01 
8.4493952e+00 1.4586795e+02 -9.3657209e-01 
2.1153023e+01 2.9177146e+02 -4.5594263e-01 
3.0954009e+01 2.9164029e+02 -8.9126378e-01 
-4.0829981e+01 -2.0427432e+02 1.3510132e+00 
-1.9369075e+00 -7.4020699e-01 3.3563504e+01 
-9.2360208e-01 7.0283764e+00 2.0032215e+01 
4.0624933e+01 2.9151044e+02 -1.3182150e+00 
-5.8775545e-01 5.9353919e+00 2.2298641e+01 
-5.0729380e+01 -2.0483327e+02 1.7962595e+00 
5.0288752e+01 2.9139333e+02 -1.7416584e+00 
5.9935373e+01 2.9129424e+02 -2.1614465e+00 
-3.8893498e-01 4.8460137e+00 2.4595036e+01 
-2.5939622e+00 -1.8343068e+00 3.4966828e+01 
-6.0635137e+01 -2.0536169e+02 2.2435512e+00 
6.9573341e+01 2.9121867e+02 -2.5782158e+00 
-3.3103106e-01 3.7595502e+00 2.6878374e+01 
-7.0831704e+01 -2.0587028e+02 2.7042904e+00 
7.9175096e+01 2.9117102e+02 -2.9911233e+00 
-3.4015817e+00 -2.9274199e+00 3.6041843e+01 
-4.1739286e-01 2.6752757e+00 2.9105162e+01 
-7.8682247e+01 -2.0624599e+02 3.0693424e+00 
8.9035914e+01 2.9115940e+02 -3.4120409e+00 
-6.5085148e-01 1.5925003e+00 3.1232018e+01 
-4.8060693e+01 -1.0507262e+02 2.0700430e+01 
9.6479585e+01 2.9116173e+02 -3.7394886e+00 
1.2676964e+00 -9.8602803e+01 -9.6168123e-01 
-1.7247894e+00 -1.9766783e+02 -3.8723250e-01 
-1.1673662e+01 -1.9832472e+02 5.5820015e-02 
-1.0337056e+00 5.1048741e-01 3.3216458e+01 
-2.1551529e+01 -1.9895677e+02 4.9776091e-01 
5.3245429e+01 1.5134834e+02 4.4488655e+00 
-2.7802032e+00 1.0410646e+01 1.3193711e+01 
-3.1476910e+01 -1.9957054e+02 9.4360267e-01 
-1.9487142e+00 9.2942709e+00 1.5315095e+01 
-1.2554974e+00 8.2054218e+00 1.7580147e+01 
8.6883979e+00 1.4534715e+02 -9.5960427e-01 
-4.1437046e+01 -2.0016132e+02 1.3928138e+00 
-1.5678334e+00 -5.7125186e-01 3.5016280e+01 
2.1672482e+01 2.9070294e+02 -5.0870964e-01 
3.1573439e+01 2.9052342e+02 -9.5208256e-01 
-7.0328841e-01 7.1193179e+00 1.9976588e+01 
4.1340394e+01 2.9034598e+02 -1.3865846e+00 
-5.1436505e+01 -2.0072597e+02 1.8455302e+00 
-2.9784850e-01 6.0378422e+00 2.2457171e+01 
5.1097759e+01 2.9018231e+02 -1.8172144e+00 
-2.2534621e+00 -1.6542298e+00 3.6602406e+01 
-4.3943070e-02 4.9599535e+00 2.4976843e+01 
-6.1443201e+01 -2.0125956e+02 2.3004498e+00 
6.0835383e+01 2.9003827e+02 -2.2438326e+00 
7.0561993e+01 2.8991987e+02 -2.6671056e+00 
5.4339077e-02 3.8849841e+00 2.7488762e+01 
-7.1744489e+01 -2.0177307e+02 2.7691959e+00 
-3.1018764e+00 -2.7354915e+00 3.7842218e+01 
8.0249858e+01 2.8983203e+02 -3.0861964e+00 
-6.4599156e-03 2.8122312e+00 2.9945602e+01 
-7.9674141e+01 -2.0214962e+02 3.1404508e+00 
9.0197544e+01 2.8978289e+02 -3.5132580e+00 
-2.2918890e-01 1.7410316e+00 3.2300183e+01 
-4.8498088e+01 -1.0291539e+02 2.1677787e+01 
9.7700877e+01 2.8975375e+02 -3.8444933e+00 
1.1792961e+00 -9.6446262e+01 -9.4237905e-01 
-1.9389280e+00 -1.9335761e+02 -3.7347884e-01 
-1.1979851e+01 -1.9402109e+02 7.6116370e-02 
-6.1607193e-01 6.7067309e-01 3.4506309e+01 
-2.1950632e+01 -1.9465972e+02 5.2476255e-01 
5.3840382e+01 1.5066138e+02 3.9591659e+00 
-3.1970951e+01 -1.9527998e+02 9.7755751e-01 
-2.8507008e+00 1.0462300e+01 1.2446274e+01 
-1.8986551e+00 9.3582634e+00 1.4746968e+01 
-1.0996821e+00 8.2818010e+00 1.7214994e+01 
-4.2027768e+01 -1.9587703e+02 1.4339508e+00 
-1.1688052e+00 -3.9928955e-01 3.6518161e+01 
8.9234903e+00 1.4475454e+02 -9.8347873e-01 
2.2183532e+01 2.8948901e+02 -5.6290711e-01 
-4.5694573e-01 7.2079886e+00 1.9831993e+01 
3.2183011e+01 2.8925793e+02 -1.0142692e+00 
-5.2125524e+01 -1.9644759e+02 1.8940702e+00 
4.2044437e+01 2.8902974e+02 -1.4562311e+00 
2.3380977e-02 6.1387664e+00 2.2546987e+01 
5.1893666e+01 2.8881639e+02 -1.8939291e+00 
-1.8874033e+00 -1.4704263e+00 3.8303626e+01 
-6.2231580e+01 -1.9698654e+02 2.3565681e+00 
3.3621571e-01 5.0731021e+00 2.5310835e+01 
6.1720491e+01 2.8862437e+02 -2.3272335e+00 
4.7725918e-01 4.0103528e+00 2.8072553e+01 
7.1533830e+01 2.8846027e+02 -2.7568423e+00 
-7.2636109e+01 -1.9750516e+02 2.8332840e+00 
-2.7822255e+00 -2.5391133e+00 3.9723186e+01 
8.1305794e+01 2.8832956e+02 -3.1819270e+00 
4.4294184e-01 2.9498390e+00 3.0780656e+01 
-8.0644092e+01 -1.9788258e+02 3.2107437e+00 
9.1338182e+01 2.8824043e+02 -3.6149210e+00 
2.3040231e-01 1.8909254e+00 3.3383839e+01 
-4.8915584e+01 -1.0066987e+02 2.2698627e+01 
9.8899477e+01 2.8817793e+02 -3.9497425e+00 
1.0942792e+00 -9.4206828e+01 -9.2215390e-01 
-2.1452157e+00 -1.8888167e+02 -3.5998795e-01 
-1.2275541e+01 -1.8955186e+02 9.5995994e-02 
-1.6249582e-01 8.3292513e-01 3.5831879e+01 
-2.2336853e+01 -1.9019717e+02 5.5121639e-01 
-3.2449950e+01 -1.9082407e+02 1.0108543e+00 
5.4419293e+01 1.4988801e+02 3.3872416e+00 
-2.9196566e+00 1.0509345e+01 1.1544862e+01 
-1.8367014e+00 9.4184000e+00 1.4042569e+01 
-4.2601508e+01 -1.9142754e+02 1.4743401e+00 
-7.3724529e-01 -2.2456106e-01 3.8075029e+01 
-9.2308673e-01 8.3550747e+00 1.6733297e+01 
9.1543613e+00 1.4409220e+02 -1.0082636e+00 
2.2685568e+01 2.8813367e+02 -6.1854390e-01 
-1.8246429e-01 7.2942914e+00 1.9591937e+01 
3.2782151e+01 2.8784760e+02 -1.0778323e+00 
-5.2795825e+01 -1.9200414e+02 1.9417927e+00 
4.2736519e+01 2.8756520e+02 -1.5271613e+00 
3.7854706e-01 6.2380500e+00 2.2563460e+01 
5.2675956e+01 2.8729879e+02 -1.9718055e+00 
-1.4936215e+00 -1.2831616e+00 4.0077853e+01 
-6.2999708e+01 -1.9254857e+02 2.4118181e+00 
7.5452446e-01 5.1853267e+00 2.5594283e+01 
6.2590205e+01 2.8705553e+02 -2.4116466e+00 
-7.3506058e+01 -1.9307247e+02 2.8964669e+00 
9.4094599e-01 4.1355036e+00 2.8628927e+01 
7.2488377e+01 2.8684260e+02 -2.8474162e+00 
-2.4410001e+00 -2.3385744e+00 4.1693458e+01 
8.2342437e+01 2.8666612e+02 -3.2782966e+00 
-8.1591669e+01 -1.9345069e+02 3.2801363e+00 
9.3412747e-01 3.0879253e+00 3.1611398e+01 
9.2457362e+01 2.8653432e+02 -3.7170012e+00 
7.3120012e-01 2.0419852e+00 3.4485923e+01 
-4.9312403e+01 -9.8339055e+01 2.3767632e+01 
1.0129558e+00 -9.1887704e+01 -9.0100485e-01 
1.0007491e+02 2.8643641e+02 -4.0551969e+00 
-2.3430180e+00 -1.8424639e+02 -3.4681905e-01 
3.3012786e-01 9.9702355e-01 3.7197909e+01 
-1.2560063e+01 -1.8492333e+02 1.1539162e-01 
-2.2709505e+01 -1.8557537e+02 5.7704832e-01 
-3.2913218e+01 -1.8620899e+02 1.0434134e+00 
5.4981448e+01 1.4902927e+02 2.7263828e+00 
-2.9872883e+00 1.0551723e+01 1.0476950e+01 
-1.7620871e+00 9.4746107e+00 1.3191090e+01 
-4.3157588e+01 -1.8681895e+02 1.5138978e+00 
-2.7035728e-01 -4.7310708e-02 3.9693344e+01 
-7.2410770e-01 8.4251593e+00 1.6126120e+01 
1.2244978e-01 7.3781276e+00 1.9249446e+01 
9.3806668e+00 1.4336230e+02 -1.0340305e+00 
-5.3446761e+01 -1.8740168e+02 1.9886109e+00 
2.3177915e+01 2.8664114e+02 -6.7562972e-01 
3.3370220e+01 2.8629632e+02 -1.1427819e+00 
7.7048627e-01 6.3355780e+00 2.2501642e+01 
4.3416034e+01 2.8595601e+02 -1.5993833e+00 
-1.0697648e+00 -1.0927050e+00 4.1933170e+01 
-6.3746982e+01 -1.8795167e+02 2.4661118e+00 
5.3444055e+01 2.8563285e+02 -2.0508482e+00 
1.2142155e+00 5.2964938e+00 2.5824300e+01 
6.3443982e+01 2.8533479e+02 -2.4970714e+00 
-7.4353795e+01 -1.8848091e+02 2.9586567e+00 
1.4488818e+00 4.2602827e+00 2.9157067e+01 
7.3425118e+01 2.8506965e+02 -2.9388196e+00 
-2.0764261e+00 -2.1341688e+00 4.3762590e+01 
-8.2516414e+01 -1.8885979e+02 3.3485441e+00 
1.4706839e+00 3.2263145e+00 3.2439066e+01 
8.3359291e+01 2.8484427e+02 -3.3752890e+00 
-4.9687692e+01 -9.5925960e+01 2.4889945e+01 
1.2767512e+00 2.1940127e+00 3.5609688e+01 
9.3554597e+01 2.8466688e+02 -3.8194718e+00 
9.3565328e-01 -8.9492136e+01 -8.7892734e-01 
-2.5316666e+00 -1.7945821e+02 -3.3402971e-01 
1.0122668e+02 2.8453137e+02 -4.1608196e+00 
-1.2832718e+01 -1.8014187e+02 1.3423743e-01 
8.6516022e-01 1.1627456e+00 3.8609607e+01 
-2.3067871e+01 -1.8080064e+02 6.0218541e-01 
-3.3360031e+01 -1.8144097e+02 1.0751558e+00 
5.5526088e+01 1.4808624e+02 1.9693136e+00 
-3.0538265e+00 1.0589375e+01 9.2289808e+00 
-4.3695293e+01 -1.8205744e+02 1.5525403e+00 
2.3488865e-01 1.3221348e-01 4.1380191e+01 
-1.6739733e+00 9.5268223e+00 1.2180861e+01 
-5.0099903e-01 8.4919692e+00 1.5383839e+01 
-5.4077642e+01 -1.8264631e+02 2.0344381e+00 
4.6028639e-01 7.4593970e+00 1.8797034e+01 
9.6020240e+00 1.4256714e+02 -1.0608540e+00 
2.3659821e+01 2.8501580e+02 -7.3417478e-01 
3.3946499e+01 2.8460820e+02 -1.2091283e+00 
1.2022712e+00 6.4312337e+00 2.2356249e+01 
-6.1328143e-01 -8.9933057e-01 4.3878427e+01 
-6.4472754e+01 -1.8320185e+02 2.5193610e+00 
4.4082299e+01 2.8420593e+02 -1.6729062e+00 
5.4197318e+01 2.8382205e+02 -2.1310632e+00 
1.7187852e+00 5.4064684e+00 2.5997833e+01 
-7.5178739e+01 -1.8373645e+02 3.0197652e+00 
6.4281217e+01 2.8346531e+02 -2.5835088e+00 
2.0048296e+00 4.3845353e+00 2.9656159e+01 
-1.6865740e+00 -1.9261965e+00 4.5941048e+01 
7.4343487e+01 2.8314431e+02 -3.0310470e+00 
-8.3417828e+01 -1.8411575e+02 3.4158830e+00 
2.0564856e+00 3.3648297e+00 3.3265069e+01 
8.4355822e+01 2.8286661e+02 -3.4728902e+00 
-5.0040525e+01 -9.3433591e+01 2.6071199e+01 
1.8708864e+00 2.3468070e+00 3.6758725e+01 
9.4629372e+01 2.8264050e+02 -3.9223086e+00 
8.6271544e-01 -8.7023418e+01 -8.5591290e-01 
-2.7104615e+00 -1.7452369e+02 -3.2167502e-01 
-1.3092774e+01 -1.7521395e+02 1.5246989e-01 
1.4462336e+00 1.3298651e+00 4.0072686e+01 
1.0235427e+02 2.8246501e+02 -4.2665756e+00 
-2.3411198e+01 -1.7587935e+02 6.2655668e-01 
-3.3789630e+01 -1.7652634e+02 1.1060041e+00 
5.6052406e+01 1.4706002e+02 1.1081419e+00 
-3.1195155e+00 1.0622232e+01 7.7862747e+00 
-4.4213870e+01 -1.7714925e+02 1.5901849e+00 
7.8177012e-01 3.1375917e-01 4.3143315e+01 
-1.5714418e+00 9.5749581e+00 1.0999281e+01 
-2.5186232e-01 8.5554161e+00 1.4496088e+01 
-5.4687732e+01 -1.7774418e+02 2.0791879e+00 
8.3374446e-01 7.5379977e+00 1.8226667e+01 
9.8180038e+00 1.4170911e+02 -1.0888109e+00 
2.4130441e+01 2.8326227e+02 -7.9418920e-01 
-1.2140664e-01 -7.0331807e-01 4.5923300e+01 
1.6772254e+00 6.5248992e+00 2.2121634e+01 
3.4510173e+01 2.8278751e+02 -1.2768823e+00 
-6.5176332e+01 -1.7830518e+02 2.5714776e+00 
4.4734537e+01 2.8231891e+02 -1.7477393e+00 
2.2720094e+00 5.5151146e+00 2.6111656e+01 
5.4935019e+01 2.8186997e+02 -2.2124570e+00 
-7.5980256e+01 -1.7884506e+02 3.0797045e+00 
6.5101235e+01 2.8145037e+02 -2.6709612e+00 
2.6128494e+00 4.5081048e+00 3.0125397e+01 
-1.2693487e+00 -1.7149640e+00 4.8240271e+01 
7.5242862e+01 2.8106950e+02 -3.1240946e+00 
-8.4295367e+01 -1.7922439e+02 3.4820686e+00 
2.6957106e+00 3.5032919e+00 3.4090999e+01 
8.5331454e+01 2.8073580e+02 -3.5710884e+00 
-5.0369888e+01 -9.0864949e+01 2.7317559e+01 
2.5177372e+00 2.5001644e+00 3.7936984e+01 
9.5681151e+01 2.8045757e+02 -4.0254897e+00 
7.9450122e-01 -8.4484890e+01 -8.3194886e-01 
-2.8786737e+00 -1.6944946e+02 -3.0980658e-01 
2.0772677e+00 1.4981524e+00 4.1593388e+01 
-1.3339473e+01 -1.7014612e+02 1.7002883e-01 
1.0345715e+02 2.8023956e+02 -4.3724323e+00 
-2.3738708e+01 -1.7081797e+02 6.5009408e-01 
-3.4201224e+01 -1.7147146e+02 1.1358832e+00 
-4.4712524e+01 -1.7210067e+02 1.6267507e+00 
1.3738279e+00 4.9706900e-01 4.4991169e+01 
5.6559547e+01 1.4595171e+02 1.3430377e-01 
-3.1846131e+00 1.0650223e+01 6.1329396e+00 
-1.4534887e+00 9.6189361e+00 9.6327420e+00 
2.5365142e-02 8.6154080e+00 1.3451713e+01 
-5.5276253e+01 -1.7270151e+02 2.1227751e+00 
1.2457468e+00 7.6138248e+00 1.7529728e+01 
4.0885135e-01 -5.0495353e-01 4.8078340e+01 
1.0028122e+01 1.4079075e+02 -1.1179795e+00 
-6.5856967e+01 -1.7326778e+02 2.6223741e+00 
2.4588815e+01 2.8138540e+02 -8.5568229e-01 
2.1989397e+00 6.6164547e+00 2.1791775e+01 
3.5060310e+01 2.8083874e+02 -1.3460534e+00 
4.5371860e+01 2.8029906e+02 -1.8238915e+00 
2.8779612e+00 5.6222945e+00 2.6162359e+01 
-7.6757657e+01 -1.7381273e+02 3.1383866e+00 
5.5656324e+01 2.7978035e+02 -2.2950363e+00 
6.5903275e+01 2.7929331e+02 -2.7594315e+00 
-8.2247772e-01 -1.5007856e+00 5.0672747e+01 
3.2773159e+00 4.6308329e+00 3.0563983e+01 
-8.5148427e+01 -1.7419159e+02 3.5470169e+00 
7.6122555e+01 2.7884824e+02 -3.2179602e+00 
3.3928586e+00 3.6415194e+00 3.4918644e+01 
8.6285572e+01 2.7845453e+02 -3.6698742e+00 
-5.0674673e+01 -8.8223028e+01 2.8635762e+01 
3.2217534e+00 2.6538782e+00 3.9148795e+01 
9.6709375e+01 2.7812053e+02 -4.1289961e+00 
7.3138244e-01 -8.1879936e+01 -8.0701826e-01 
-3.0355512e+00 -1.6424224e+02 -2.9847126e-01 
2.7624865e+00 1.6673731e+00 4.3178524e+01 
-1.3572039e+01 -1.6494500e+02 1.8685871e-01 
1.0453481e+02 2.7785729e+02 -4.4783602e+00 
-2.4049602e+01 -1.6562304e+02 6.7273376e-01 
-3.4593993e+01 -1.6628280e+02 1.1647215e+00 
-4.5190426e+01 -1.6691809e+02 1.6621593e+00 
2.0148824e+00 6.8187971e-01 4.6932957e+01 
5.7046615e+01 1.4476242e+02 -9.6149578e-01 
-3.2493899e+00 1.0673268e+01 4.2517662e+00 
-1.3190149e+00 9.6586687e+00 8.0665577e+00 
3.3292488e-01 8.6718487e+00 1.2238712e+01 
-5.5842376e+01 -1.6752457e+02 2.1651160e+00 
1.6994584e+00 7.6867706e+00 1.6696981e+01 
9.8072638e-01 -3.0453057e-01 5.0355039e+01 
-6.6513854e+01 -1.6809581e+02 2.6719632e+00 
1.0231831e+01 1.3981472e+02 -1.1484377e+00 
2.7712926e+00 6.7057777e+00 2.1360245e+01 
2.5033850e+01 2.7939029e+02 -9.1866155e-01 
3.5595838e+01 2.7876660e+02 -1.4166496e+00 
4.5993241e+01 2.7815066e+02 -1.9013701e+00 
3.5410322e+00 5.7278682e+00 2.6146340e+01 
-7.7510184e+01 -1.6864552e+02 3.1957235e+00 
5.6360280e+01 2.7755705e+02 -2.3788071e+00 
-3.4349920e-01 -1.2839849e+00 5.3252087e+01 
4.0029404e+00 4.7525589e+00 3.0971129e+01 
6.6686471e+01 2.7699760e+02 -2.8489232e+00 
-8.5976335e+01 -1.6902321e+02 3.6106437e+00 
7.6981802e+01 2.7648362e+02 -3.3126428e+00 
4.1527725e+00 3.7793282e+00 3.5750003e+01 
-5.0953661e+01 -8.5510823e+01 3.0033157e+01 
8.7217512e+01 2.7602555e+02 -3.7692406e+00 
3.9877236e+00 2.8077377e+00 4.0398896e+01 
9.7713468e+01 2.7563184e+02 -4.2328121e+00 
6.7374021e-01 -7.9211984e+01 -7.8109974e-01 
-3.1803271e+00 -1.5890885e+02 -2.8770969e-01 
-1.3789684e+01 -1.5961731e+02 2.0291018e-01 
3.5064386e+00 1.8372877e+00 4.4835507e+01 
-2.4343068e+01 -1.6030120e+02 6.9441750e-01 
1.0558671e+02 2.7532046e+02 -4.5843337e+00 
-3.4967099e+01 -1.6096692e+02 1.1924520e+00 
-4.5646711e+01 -1.6160795e+02 1.6963356e+00 
2.7090524e+00 8.6792102e-01 4.8978684e+01 
5.7512674e+01 1.4349330e+02 -2.1893484e+00 
-3.3141268e+00 1.0691276e+01 2.1241189e+00 
-1.1668144e+00 9.6940607e+00 6.2848781e+00 
-5.6385222e+01 -1.6221973e+02 2.2061289e+00 
6.7325600e-01 8.7246364e+00 1.0844178e+01 
2.1983091e+00 7.7567231e+00 1.5718534e+01 
1.5977112e+00 -1.0235183e-01 5.2765889e+01 
-6.7146119e+01 -1.6279550e+02 2.7201590e+00 
3.3984763e+00 6.7927429e+00 2.0820198e+01 
1.0428504e+01 1.3878383e+02 -1.1802614e+00 
2.5464291e+01 2.7728231e+02 -9.8313138e-01 
3.6115511e+01 2.7657602e+02 -1.4886753e+00 
-7.8236999e+01 -1.6334950e+02 3.2516269e+00 
4.2659595e+00 5.8316931e+00 2.6059801e+01 
4.6597486e+01 2.7587821e+02 -1.9801795e+00 
5.7045779e+01 2.7520412e+02 -2.4637733e+00 
1.7025243e-01 -1.0648963e+00 5.5993102e+01 
4.7947980e+00 4.8731195e+00 3.1346064e+01 
6.7449835e+01 2.7456682e+02 -2.9394387e+00 
-8.6778331e+01 -1.6372513e+02 3.6728642e+00 
7.7819749e+01 2.7397880e+02 -3.4081424e+00 
4.9806650e+00 3.9165304e+00 3.6587298e+01 
-5.1205507e+01 -8.2731321e+01 3.1517754e+01 
8.8126557e+01 2.7345167e+02 -3.8691828e+00 
4.8208015e+00 2.9615274e+00 4.1692452e+01 
9.8692845e+01 2.7299400e+02 -4.3369259e+00 
6.2195953e-01 -7.6484503e+01 -7.5416765e-01 
-3.3122315e+00 -1.5345618e+02 -2.7755443e-01 
-1.3991628e+01 -1.5416987e+02 2.1814202e-01 
4.3140213e+00 2.0076502e+00 4.6572384e+01 
-2.4618297e+01 -1.5485917e+02 7.1509459e-01 
1.0661236e+02 2.7263139e+02 -4.6903315e+00 
-3.5319694e+01 -1.5553046e+02 1.2190141e+00 
-4.6080489e+01 -1.5617683e+02 1.7292093e+00 
3.4607772e+00 1.0549143e+00 5.1139202e+01 
5.7956760e+01 1.4214550e+02 -3.5602141e+00 
-3.3791104e+00 1.0704146e+01 -2.7018526e-01 
-9.9555715e-01 9.7250074e+00 4.2706015e+00 
-5.6903863e+01 -1.5679343e+02 2.2457350e+00 
1.0490205e+00 8.7736624e+00 9.2542380e+00 
2.7460259e+00 7.8235653e+00 1.4583793e+01 
2.2635770e+00 1.0126937e-01 5.5324449e+01 
-6.7752814e+01 -1.5737316e+02 2.7668764e+00 
4.0850323e+00 6.8772210e+00 2.0164337e+01 
1.0617419e+01 1.3770104e+02 -1.2135210e+00 
2.5878688e+01 2.7506712e+02 -1.0490914e+00 
-7.8937165e+01 -1.5793082e+02 3.3060086e+00 
3.6617880e+01 2.7427219e+02 -1.5621299e+00 
5.0578645e+00 5.9336232e+00 2.5898732e+01 
4.7183200e+01 2.7348639e+02 -2.0603194e+00 
7.2166217e-01 -8.4386759e-01 5.8911892e+01 
5.7711534e+01 2.7272571e+02 -2.5499351e+00 
5.6583667e+00 4.9923477e+00 3.1688036e+01 
-8.7553543e+01 -1.5830326e+02 3.7335924e+00 
6.8192228e+01 2.7200466e+02 -3.0309789e+00 
5.8821565e+00 4.0529339e+00 3.7432988e+01 
7.8635439e+01 2.7133700e+02 -3.5044592e+00 
-5.1428723e+01 -7.9887512e+01 3.3098270e+01 
8.9011939e+01 2.7073569e+02 -3.9696986e+00 
5.7265407e+00 3.1150263e+00 4.3035087e+01 
9.9646918e+01 2.7020949e+02 -4.4413299e+00 
5.7642172e-01 -7.3700992e+01 -7.2619232e-01 
-3.4305083e+00 -1.4789120e+02 -2.6802782e-01 
5.1905122e+00 2.1782073e+00 4.8397880e+01 
-1.4177112e+01 -1.4860955e+02 2.3252345e-01 
-2.4874501e+01 -1.4930379e+02 7.3472404e-01 
1.0761130e+02 2.6979241e+02 -4.7963383e+00 
-3.5650935e+01 -1.4998018e+02 1.2443553e+00 
-4.6490847e+01 -1.5063140e+02 1.7607164e+00 
4.2748446e+00 1.2425710e+00 5.3426263e+01 
5.8377894e+01 1.4072018e+02 -5.0860012e+00 
-3.4446247e+00 1.0711761e+01 -2.9530100e+00 
-5.7397319e+01 -1.5125223e+02 2.2838596e+00 
-8.0376656e-01 9.7513926e+00 2.0052740e+00 
1.4631387e+00 8.8188091e+00 7.4539794e+00 
2.9823973e+00 3.0600687e-01 5.8045412e+01 
-6.8332910e+01 -1.5183520e+02 2.8120320e+00 
3.3466771e+00 7.8871738e+00 1.3281420e+01 
4.8359030e+00 6.9590777e+00 1.9384894e+01 
-7.9609635e+01 -1.5239570e+02 3.3587796e+00 
1.0797745e+01 1.3656948e+02 -1.2482783e+00 
2.6275356e+01 2.7275067e+02 -1.1165343e+00 
3.7101240e+01 2.7186054e+02 -1.6370049e+00 
5.9223069e+00 6.0335086e+00 2.5658906e+01 
1.3138534e+00 -6.2126198e-01 6.2025940e+01 
4.7748742e+01 2.7098008e+02 -2.1417823e+00 
5.8356040e+01 2.7012616e+02 -2.6372873e+00 
-8.8300966e+01 -1.5276354e+02 3.7927406e+00 
6.5995825e+00 5.1100726e+00 3.1996316e+01 
6.8912339e+01 2.6931489e+02 -3.1235413e+00 
6.8633290e+00 4.1883418e+00 3.8289794e+01 
7.9427790e+01 2.6856149e+02 -3.6015930e+00 
-5.1621651e+01 -7.6982392e+01 3.4784186e+01 
8.9872830e+01 2.6788048e+02 -4.0707882e+00 
6.7109448e+00 3.2680067e+00 4.4432910e+01 
1.0057510e+02 2.6728083e+02 -4.5460218e+00 
5.3749387e-01 -7.0864976e+01 -6.9714071e-01 
-3.5344380e+00 -1.4222094e+02 -2.5913920e-01 
6.1416138e+00 2.3486964e+00 5.0321438e+01 
-1.4345428e+01 -1.4294334e+02 2.4603696e-01 
-2.5110935e+01 -1.4364197e+02 7.5327731e-01 
-3.5960004e+01 -1.4432297e+02 1.2684339e+00 
1.0858313e+02 2.6680584e+02 -4.9023460e+00 
-4.6876870e+01 -1.4497847e+02 1.7908009e+00 
5.1564288e+00 1.4305905e+00 5.5852579e+01 
5.8775099e+01 1.3921852e+02 -6.7796561e+00 
-5.7864566e+01 -1.4560285e+02 2.3204328e+00 
-3.5109382e+00 1.0713984e+01 -5.9480515e+00 
-5.8978552e-01 9.7730852e+00 -5.3102481e-01 
1.9188392e+00 8.8599484e+00 5.4273654e+00 
3.7585788e+00 5.1151920e-01 6.0944684e+01 
-6.8885285e+01 -1.4618817e+02 2.8555444e+00 
4.0047365e+00 7.9474171e+00 1.1799267e+01 
5.6565054e+00 7.0381730e+00 1.8473587e+01 
-8.0253226e+01 -1.4675045e+02 3.4098499e+00 
1.0968514e+01 1.3539246e+02 -1.2845811e+00 
2.6652326e+01 2.7033922e+02 -1.1854430e+00 
6.8653661e+00 6.1311942e+00 2.5335859e+01 
3.7563588e+01 2.6934675e+02 -1.7132816e+00 
1.9502108e+00 -3.9746167e-01 6.5354204e+01 
4.8292179e+01 2.6836436e+02 -2.2245508e+00 
-8.9019430e+01 -1.4711197e+02 3.8502183e+00 
5.8977527e+01 2.6740994e+02 -2.7258169e+00 
7.6249224e+00 5.2261180e+00 3.2270201e+01 
6.9608642e+01 2.6650138e+02 -3.2171185e+00 
7.9308055e+00 4.3225510e+00 3.9160710e+01 
-5.1782437e+01 -7.4018965e+01 3.6585801e+01 
8.0195580e+01 2.6565561e+02 -3.6995421e+00 
7.7805401e+00 3.4202330e+00 4.5892556e+01 
9.0708335e+01 2.6488887e+02 -4.1724542e+00 
5.0551491e-01 -6.7979994e+01 -6.6697728e-01 
-3.6233674e+00 -1.3645249e+02 -2.5088181e-01 
1.0147685e+02 2.6421051e+02 -4.6510054e+00 
-1.4495949e+01 -1.3717828e+02 2.5868170e-01 
7.1735169e+00 2.5188442e+00 5.2353273e+01 
-2.5326931e+01 -1.3788076e+02 7.7074159e-01 
-3.6246132e+01 -1.3856583e+02 1.2912217e+00 
1.0952757e+02 2.6367401e+02 -5.0083556e+00 
-4.7237648e+01 -1.3922500e+02 1.8194174e+00 
6.1111428e+00 1.6186580e+00 5.8431891e+01 
-5.8304535e+01 -1.3985212e+02 2.3553917e+00 
5.9147424e+01 1.3764170e+02 -8.6552663e+00 
-3.5782835e+00 1.0710658e+01 -9.2810137e+00 
-3.5172932e-01 9.7899364e+00 -3.3598198e+00 
2.4197316e+00 8.8969387e+00 3.1571295e+00 
4.5969019e+00 7.1744646e-01 6.4039472e+01 
-6.9408720e+01 -1.4043875e+02 2.8973346e+00 
4.7251769e+00 8.0041544e+00 1.0124302e+01 
6.5528416e+00 7.1143595e+00 1.7421569e+01 
-8.0866598e+01 -1.4100153e+02 3.4591284e+00 
1.1128594e+01 1.3417344e+02 -1.3224565e+00 
2.6344103e+00 -1.7287162e-01 6.8917236e+01 
7.8937610e+00 6.2265192e+00 2.4924866e+01 
2.7007287e+01 2.6783935e+02 -1.2557875e+00 
3.8002557e+01 2.6673677e+02 -1.7909268e+00 
-8.9707559e+01 -1.4135462e+02 3.9059308e+00 
4.8811227e+01 2.6564451e+02 -2.3085942e+00 
8.7415275e+00 5.3403022e+00 3.2509015e+01 
5.9573916e+01 2.6458165e+02 -2.8154996e+00 
7.0279365e+01 2.6356809e+02 -3.3116956e+00 
-5.1908994e+01 -7.1000263e+01 3.8514298e+01 
9.0918694e+00 4.4553515e+00 4.0049036e+01 
8.0937419e+01 2.6262269e+02 -3.7983019e+00 
8.9424848e+00 3.5714602e+00 4.7421231e+01 
9.1517492e+01 2.6176369e+02 -4.2747013e+00 
4.8077720e-01 -6.5049578e+01 -6.3566550e-01 
-3.6967478e+00 -1.3059294e+02 -2.4322888e-01 
1.0235162e+02 2.6100095e+02 -4.7562918e+00 
8.2929938e+00 2.6883650e+00 5.4504440e+01 
-1.4628172e+01 -1.3132150e+02 2.7047746e-01 
-2.5521932e+01 -1.3202730e+02 7.8712361e-01 
-3.6508634e+01 -1.3271593e+02 1.3127076e+00 
1.1044445e+02 2.6039919e+02 -5.1143794e+00 
-4.7572304e+01 -1.3337813e+02 1.8465333e+00 
7.1451132e+00 1.8064417e+00 6.1179048e+01 
-5.8716126e+01 -1.3400712e+02 2.3886816e+00 
5.9493974e+01 1.3599086e+02 -1.0728180e+01 
-3.6468282e+00 1.0701593e+01 -1.2979817e+01 
-8.7418046e-02 9.8017748e+00 -6.5044109e+00 
5.5025775e+00 9.2340669e-01 6.7348382e+01 
2.9699090e+00 8.9296221e+00 6.2463726e-01 
-6.9901889e+01 -1.3459383e+02 2.9373272e+00 
5.5136053e+00 8.0572329e+00 8.2425031e+00 
-8.1448228e+01 -1.3515554e+02 3.5065223e+00 
7.5316596e+00 7.1874817e+00 1.6219361e+01 
3.3704569e+00 5.2075761e-02 7.2737306e+01 
9.0150277e+00 6.3193159e+00 2.4420906e+01 
1.1276657e+01 1.3291608e+02 -1.3619030e+00 
2.7337522e+01 2.6525790e+02 -1.3275204e+00 
3.8415350e+01 2.6403677e+02 -1.8698886e+00 
-9.0363730e+01 -1.3549767e+02 3.9597777e+00 
4.9303186e+01 2.6282599e+02 -2.3938642e+00 
9.9573864e+00 5.4524367e+00 3.2712105e+01 
6.0142760e+01 2.6164600e+02 -2.9062967e+00 
-5.1998960e+01 -6.7929352e+01 4.0581816e+01 
7.0922442e+01 2.6051902e+02 -3.4072478e+00 
1.0354643e+01 4.5865251e+00 4.0958405e+01 
8.1651720e+01 2.5946607e+02 -3.8978635e+00 
1.0204730e+01 3.7214324e+00 4.9026775e+01 
9.2299254e+01 2.5850773e+02 -4.3775357e+00 
4.6350310e-01 -6.2077236e+01 -6.0316992e-01 
-3.7541838e+00 -1.2464940e+02 -2.3612924e-01 
-1.4741764e+01 -1.2538017e+02 2.8146934e-01 
9.5075362e+00 2.8569577e+00 5.6786916e+01 
1.0319895e+02 2.5765451e+02 -4.8619000e+00 
-2.5695545e+01 -1.2608885e+02 8.0245423e-01 
-3.6746945e+01 -1.2678059e+02 1.3329014e+00 
1.1133379e+02 2.5698357e+02 -5.2204432e+00 
-4.7880023e+01 -1.2744520e+02 1.8721330e+00 
8.2650896e+00 1.9935896e+00 6.4110121e+01 
-5.9098220e+01 -1.2807511e+02 2.4202587e+00 
5.9813944e+01 1.3426712e+02 -1.3015150e+01 
-3.7166318e+00 1.0686567e+01 -1.7074852e+01 
2.0571875e-01 9.8084015e+00 -9.9900932e+00 
6.4813258e+00 1.1289914e+00 7.0891550e+01 
-7.0363353e+01 -1.2866050e+02 2.9754511e+00 
3.5740965e+00 8.9578209e+00 -2.1903019e+00 
6.3764586e+00 8.1064859e+00 6.1387040e+00 
-8.1996382e+01 -1.2921930e+02 3.5519365e+00 
8.6006882e+00 7.2573739e+00 1.4856734e+01 
4.1627369e+00 2.7691482e-01 7.6838553e+01 
1.0237781e+01 6.4094092e+00 2.3818595e+01 
1.1411138e+01 1.3162417e+02 -1.4028800e+00 
-9.0986026e+01 -1.2954747e+02 4.0116509e+00 
2.7639824e+01 2.6260200e+02 -1.4005717e+00 
3.8798661e+01 2.6125311e+02 -1.9500912e+00 
4.9764871e+01 2.5991437e+02 -2.4802896e+00 
1.1281606e+01 5.5623256e+00 3.2878839e+01 
6.0681184e+01 2.5860780e+02 -2.9981505e+00 
-5.2049645e+01 -6.4809358e+01 4.2801529e+01 
7.1535466e+01 2.5735820e+02 -3.5037368e+00 
1.1728348e+01 4.7158447e+00 4.1892830e+01 
8.2336665e+01 2.5618908e+02 -3.9982110e+00 
1.1576260e+01 3.8698813e+00 5.0717746e+01 
9.3052481e+01 2.5512369e+02 -4.4809647e+00 
4.5381562e-01 -5.9066424e+01 -5.6945905e-01 
-3.7954924e+00 -1.1862892e+02 -2.2950207e-01 
-1.4836628e+01 -1.1936149e+02 2.9173310e-01 
1.0825557e+01 3.0243037e+00 5.9213727e+01 
1.0401843e+02 2.5417342e+02 -4.9678580e+00 
-2.5847592e+01 -1.2007278e+02 8.1679370e-01 
-3.6960671e+01 -1.2076731e+02 1.3518389e+00 
1.1219582e+02 2.5342922e+02 -5.3265891e+00 
-4.8160084e+01 -1.2143376e+02 1.8962212e+00 
9.4786022e+00 2.1797255e+00 6.7242545e+01 
-5.9449695e+01 -1.2206363e+02 2.4500930e+00 
6.0106664e+01 1.3247153e+02 -1.5534501e+01 
-3.7875856e+00 1.0665309e+01 -2.1599303e+01 
5.3077566e-01 9.8095839e+00 -1.3844449e+01 
7.5394894e+00 1.3337603e+00 7.4690808e+01 
-7.0791560e+01 -1.2264616e+02 3.0116410e+00 
4.2378596e+00 8.9813332e+00 -5.3096953e+00 
7.3212837e+00 8.1517305e+00 3.7963751e+00 
-8.2509087e+01 -1.2319988e+02 3.5952733e+00 
9.7689753e+00 7.3238595e+00 1.3322549e+01 
5.0160885e+00 5.0113971e-01 8.1247169e+01 
1.1572090e+01 6.4966154e+00 2.3112097e+01 
-9.1572173e+01 -1.2351055e+02 4.0614324e+00 
1.1530191e+01 1.3030166e+02 -1.4452941e+00 
2.7910408e+01 2.5987899e+02 -1.4748429e+00 
3.9148594e+01 2.5839230e+02 -2.0314283e+00 
1.2724804e+01 5.6697649e+00 3.3008578e+01 
5.0192540e+01 2.5691533e+02 -2.5677709e+00 
-5.2057970e+01 -6.1643497e+01 4.5187751e+01 
6.1185821e+01 2.5547189e+02 -3.0909793e+00 
1.3223691e+01 4.8430730e+00 4.2856755e+01 
7.2115633e+01 2.5408965e+02 -3.6011065e+00 
8.2990170e+01 2.5279497e+02 -4.0993191e+00 
1.3067438e+01 4.0165240e+00 5.2503549e+01 
9.3775918e+01 2.5161412e+02 -4.5849949e+00 
4.5170254e-01 -5.6020512e+01 -5.3450924e-01 
-3.8207751e+00 -1.1253845e+02 -2.2323107e-01 
1.2256683e+01 3.1900638e+00 6.1799117e+01 
-1.4912968e+01 -1.1327266e+02 3.0138123e-01 
-2.5978177e+01 -1.1398653e+02 8.3023752e-01 
1.0480971e+02 2.5055975e+02 -5.0742031e+00 
-3.7149644e+01 -1.1468375e+02 1.3695875e+00 
-4.8411907e+01 -1.1535163e+02 1.9188282e+00 
1.0794190e+01 2.3644444e+00 7.0595324e+01 
1.1303103e+02 2.4973802e+02 -5.4328775e+00 
-5.9769459e+01 -1.1598051e+02 2.4781719e+00 
6.0371643e+01 1.3060503e+02 -1.8306347e+01 
-3.8593295e+00 1.0637497e+01 -2.6589553e+01 
8.6841928e+00 1.5372348e+00 7.8769902e+01 
8.9155678e-01 9.8050480e+00 -1.8097743e+01 
-7.1184851e+01 -1.1655851e+02 3.0458396e+00 
4.9678973e+00 8.9999284e+00 -8.7577367e+00 
8.3571328e+00 8.1927643e+00 1.1973041e+00 
-8.2984106e+01 -1.1710469e+02 3.6364326e+00 
1.1047370e+01 7.3867494e+00 1.1604517e+01 
5.9358996e+00 7.2419585e-01 8.5991632e+01 
1.3030024e+01 6.5807421e+00 2.2294978e+01 
-9.2119487e+01 -1.1739371e+02 4.1089918e+00 
1.1631632e+01 1.2895256e+02 -1.4889838e+00 
2.8144810e+01 2.5709627e+02 -1.5501990e+00 
3.9460575e+01 2.5546089e+02 -2.1137564e+00 
1.4299677e+01 5.7745425e+00 3.3100652e+01 
5.0581819e+01 2.5383456e+02 -2.6561738e+00 
-5.2020390e+01 -5.8435109e+01 4.7756050e+01 
6.1652751e+01 2.5224310e+02 -3.1846716e+00 
1.4853416e+01 4.9679619e+00 4.3855141e+01 
7.2659693e+01 2.5071735e+02 -3.6992786e+00 
8.3609836e+01 2.4928688e+02 -4.2011491e+00 
1.4690510e+01 4.1610615e+00 5.4394606e+01 
9.4468167e+01 2.4798146e+02 -4.6896302e+00 
4.5697355e-01 -5.2942746e+01 -4.9830978e-01 
-3.8305021e+00 -1.0638479e+02 -2.1715796e-01 
-1.4971374e+01 -1.0712087e+02 3.1056952e-01 
1.3812182e+01 3.3538745e+00 6.4558802e+01 
-2.6087763e+01 -1.0783763e+02 8.4292310e-01 
1.0557252e+02 2.4681529e+02 -5.1809819e+00 
-3.7313991e+01 -1.0853774e+02 1.3862522e+00 
-4.8635109e+01 -1.0920686e+02 1.9400152e+00 
1.2221729e+01 2.5473073e+00 7.4189326e+01 
1.1384023e+02 2.4591153e+02 -5.5393899e+00 
-6.0056484e+01 -1.0983391e+02 2.5045047e+00 
6.0608618e+01 1.2866837e+02 -2.1352857e+01 
-3.9311381e+00 1.0602737e+01 -3.2085725e+01 
9.9235697e+00 1.7388904e+00 8.3154798e+01 
-7.1541467e+01 -1.1040563e+02 3.0780000e+00 
1.2928299e+00 9.7944690e+00 -2.2783466e+01 
5.7724484e+00 9.0133411e+00 -1.2561328e+01 
9.4951168e+00 8.2293628e+00 -1.6788672e+00 
-8.3418918e+01 -1.1094151e+02 3.6753117e+00 
1.2449202e+01 7.4458411e+00 9.6888317e+00 
6.9282433e+00 9.4546957e-01 9.1103015e+01 
-9.2624810e+01 -1.1120414e+02 4.1541841e+00 
1.4626411e+01 6.6615884e+00 2.1359988e+01 
1.1712886e+01 1.2758092e+02 -1.5336999e+00 
2.8337786e+01 2.5426123e+02 -1.6264603e+00 
1.6021797e+01 5.8764383e+00 3.3154303e+01 
3.9729274e+01 2.5246533e+02 -2.1968864e+00 
-5.1932811e+01 -5.5187709e+01 5.0523398e+01 
5.0927641e+01 2.5067764e+02 -2.7453216e+00 
6.2077448e+01 2.4892616e+02 -3.2790799e+00 
1.6633082e+01 5.0902519e+00 4.4893573e+01 
7.3163896e+01 2.4724519e+02 -3.7981469e+00 
1.6460316e+01 4.3031765e+00 5.6402619e+01 
8.4192900e+01 2.4566783e+02 -4.3036444e+00 
9.5127639e+01 2.4422788e+02 -4.7948683e+00 
4.6921049e-01 -4.9836203e+01 -4.6086946e-01 
-3.8256089e+00 -1.0017451e+02 -2.1107549e-01 
-1.5012910e+01 -1.0091320e+02 3.1950407e-01 
1.5505560e+01 3.5153443e+00 6.7510326e+01 
-2.6177252e+01 -1.0163366e+02 8.5503676e-01 
1.0630663e+02 2.4294156e+02 -5.2882485e+00 
-3.7454207e+01 -1.0233728e+02 1.4019830e+00 
-4.8829567e+01 -1.0300778e+02 1.9598813e+00 
1.3772894e+01 2.7278344e+00 7.8047698e+01 
1.1462449e+02 2.4195095e+02 -5.6462292e+00 
-6.0309856e+01 -1.0363235e+02 2.5291283e+00 
1.1267082e+01 1.9381471e+00 8.7874114e+01 
6.0817604e+01 1.2666209e+02 -2.4698587e+01 
-7.1859582e+01 -1.0419604e+02 3.1080900e+00 
-4.0017687e+00 1.0560550e+01 -3.8132384e+01 
1.7406717e+00 9.7774601e+00 -2.7939079e+01 
6.6618482e+00 9.0212640e+00 -1.6750820e+01 
-8.3810705e+01 -1.0471862e+02 3.7118071e+00 
1.0749168e+01 8.2612760e+00 -4.8553083e+00 
8.0000661e+00 1.1642754e+00 9.6615388e+01 
1.3991216e+01 7.5009177e+00 7.5596573e+00 
-9.3084453e+01 -1.0494945e+02 4.1968468e+00 
1.6379904e+01 6.7389452e+00 2.0298741e+01 
1.1770920e+01 1.2619064e+02 -1.5790825e+00 
2.8483202e+01 2.5138096e+02 -1.7033922e+00 
1.7910730e+01 5.9752247e+00 3.3168604e+01 
-5.1790478e+01 -5.1905054e+01 5.3508367e+01 
3.9948539e+01 2.4941179e+02 -2.2805754e+00 
5.1224201e+01 2.4744992e+02 -2.8349886e+00 
6.2454740e+01 2.4552562e+02 -3.3740141e+00 
1.8582161e+01 5.2096722e+00 4.5978418e+01 
7.3623950e+01 2.4367689e+02 -3.8975708e+00 
1.8395292e+01 4.4425316e+00 5.8540926e+01 
8.4736179e+01 2.4194068e+02 -4.4067245e+00 
4.8771133e-01 -4.6703735e+01 -4.2222479e-01 
9.5752496e+01 2.4035533e+02 -4.9006955e+00 
-3.8076033e+00 -9.3913859e+01 -2.0472028e-01 
-1.5039209e+01 -9.4656559e+01 3.2844848e-01 
1.7353407e+01 3.6740487e+00 7.0673578e+01 
-2.6248077e+01 -9.5382162e+01 8.6682117e-01 
1.0701179e+02 2.3893964e+02 -5.3960610e+00 
-3.7571242e+01 -9.6090487e+01 1.4169820e+00 
-4.8995497e+01 -9.6762952e+01 1.9785705e+00 
1.5461812e+01 2.9054974e+00 8.2196457e+01 
1.1538522e+02 2.3785691e+02 -5.7535192e+00 
-6.0528844e+01 -9.7384716e+01 2.5521136e+00 
1.2725967e+01 2.1343580e+00 9.2959718e+01 
-7.2137342e+01 -9.7938756e+01 3.1360967e+00 
6.0998923e+01 1.2458634e+02 -2.8370918e+01 
-4.0692584e+00 1.0510353e+01 -4.4779483e+01 
2.2429304e+00 9.7535577e+00 -3.3607049e+01 
7.6492816e+00 9.0233397e+00 -2.1361050e+01 
-8.4156364e+01 -9.8444839e+01 3.7458160e+00 
1.2137080e+01 8.2882243e+00 -8.3589462e+00 
9.1594479e+00 1.3798405e+00 1.0256638e+02 
1.5694859e+01 7.5517479e+00 5.1983754e+00 
-9.3494153e+01 -9.8637864e+01 4.2367988e+00 
1.8314434e+01 6.8125965e+00 1.9101257e+01 
-5.1587857e+01 -4.8591224e+01 5.6731376e+01 
1.9991571e+01 6.0706685e+00 3.3142329e+01 
1.1802181e+01 1.2478540e+02 -1.6246347e+00 
2.8573938e+01 2.4846190e+02 -1.7806946e+00 
4.0111359e+01 2.4630584e+02 -2.3645182e+00 
5.1464958e+01 2.4415629e+02 -2.9248927e+00 
2.0725546e+01 5.3259404e+00 4.7117041e+01 
6.2778810e+01 2.4204574e+02 -3.4692352e+00 
7.4034990e+01 2.4001598e+02 -3.9973693e+00 
2.0518844e+01 4.5787664e+00 6.0825024e+01 
8.5236011e+01 2.3810808e+02 -4.5102776e+00 
5.1142950e-01 -4.3547920e+01 -3.8245003e-01 
-3.7786792e+00 -8.7608674e+01 -1.9776581e-01 
9.6340562e+01 2.3636546e+02 -5.0070791e+00 
-1.5052574e+01 -8.8357656e+01 3.3773069e-01 
1.9376562e+01 3.8295245e+00 7.4071529e+01 
-2.6302296e+01 -8.9090620e+01 8.7858264e-01 
-3.7666595e+01 -8.9805543e+01 1.4315118e+00 
1.0768766e+02 2.3481016e+02 -5.5044752e+00 
-4.9133548e+01 -9.0481188e+01 1.9962806e+00 
1.7305957e+01 3.0797095e+00 8.6665345e+01 
1.1612404e+02 2.3362934e+02 -5.8614003e+00 
-6.0712979e+01 -9.1100276e+01 2.5735742e+00 
1.4313851e+01 2.3267950e+00 9.8447573e+01 
-7.2372934e+01 -9.1643288e+01 3.1620335e+00 
6.1153227e+01 1.2244081e+02 -3.2400607e+01 
-4.1306598e+00 1.0451427e+01 -5.2083618e+01 
2.8098392e+00 9.7222036e+00 -3.9836261e+01 
8.7517905e+00 9.0191501e+00 -2.6432797e+01 
-8.4452531e+01 -9.2129655e+01 3.7772410e+00 
1.3681902e+01 8.3098945e+00 -1.2221795e+01 
1.0415959e+01 1.5912854e+00 1.0899790e+02 
1.7588014e+01 7.5980857e+00 2.5825336e+00 
-9.3849046e+01 -9.2278333e+01 4.2738394e+00 
2.0461179e+01 6.8823224e+00 1.7755306e+01 
-5.1318494e+01 -4.5250724e+01 6.0215022e+01 
2.2297015e+01 6.1625335e+00 3.3073781e+01 
1.1802543e+01 1.2336830e+02 -1.6696924e+00 
2.8601826e+01 2.4550945e+02 -1.8579895e+00 
4.0209889e+01 2.4315212e+02 -2.4483395e+00 
5.1642686e+01 2.4080091e+02 -3.0146901e+00 
2.3095589e+01 5.4387638e+00 4.8318107e+01 
6.3043241e+01 2.3849031e+02 -3.5644498e+00 
7.4391584e+01 2.3626573e+02 -4.0973133e+00 
2.2861220e+01 4.7114954e+00 6.3273295e+01 
8.5688188e+01 2.3417251e+02 -4.6141520e+00 
5.3891116e-01 -4.0370995e+01 -3.4166928e-01 
-3.7418331e+00 -8.1264262e+01 -1.8981618e-01 
2.1601698e+01 3.9812625e+00 7.7731268e+01 
-1.5056079e+01 -8.2022838e+01 3.4774917e-01 
9.6889191e+01 2.3225964e+02 -5.1139568e+00 
-2.6342689e+01 -8.2766338e+01 8.9069808e-01 
-3.7742410e+01 -8.3490629e+01 1.4459034e+00 
1.0833365e+02 2.3055317e+02 -5.6135330e+00 
-4.9244903e+01 -8.4171444e+01 2.0132718e+00 
1.9327375e+01 3.2498128e+00 9.1489011e+01 
-6.0862163e+01 -8.4788651e+01 2.5936754e+00 
1.1684265e+02 2.2926721e+02 -5.9700202e+00 
1.6047588e+01 2.5146307e+00 1.0437891e+02 
-7.2564677e+01 -8.5319719e+01 3.1859489e+00 
6.1281474e+01 1.2022451e+02 -3.6822510e+01 
-4.1816972e+00 1.0382887e+01 -6.0109696e+01 
3.4548206e+00 9.6827215e+00 -4.6683950e+01 
-8.4695651e+01 -8.5783298e+01 3.8059958e+00 
9.9916036e+00 9.0082022e+00 -3.2014773e+01 
1.5413793e+01 8.3259339e+00 -1.6482795e+01 
1.1781148e+01 1.7976006e+00 1.1595722e+02 
1.9707294e+01 7.6396705e+00 -3.1561894e-01 
-9.4143679e+01 -8.5880704e+01 4.3077497e+00 
2.2861189e+01 6.9479012e+00 1.6245498e+01 
-5.0974847e+01 -4.1888609e+01 6.3984515e+01 
2.4870139e+01 6.2505833e+00 3.2960529e+01 
1.1767262e+01 1.2194160e+02 -1.7133922e+00 
2.8557627e+01 2.4252723e+02 -1.9348098e+00 
4.0235553e+01 2.3995378e+02 -2.5315879e+00 
5.1749632e+01 2.3738693e+02 -3.1039717e+00 
2.5734835e+01 5.5478396e+00 4.9591994e+01 
6.3241141e+01 2.3486250e+02 -3.6593065e+00 
7.4687774e+01 2.3242912e+02 -4.1971197e+00 
2.5462020e+01 4.8403039e+00 6.5908009e+01 
8.6087890e+01 2.3013625e+02 -4.7181448e+00 
5.6823443e-01 -3.7174796e+01 -3.0007029e-01 
-3.7009766e+00 -7.4885272e+01 -1.8040127e-01 
-1.5053665e+01 -7.5657988e+01 3.5897768e-01 
2.4063447e+01 4.1286975e+00 8.1685437e+01 
9.7395100e+01 2.2803894e+02 -5.2212217e+00 
-2.6372853e+01 -7.6416322e+01 9.0362097e-01 
-3.7801585e+01 -7.7153806e+01 1.4605641e+00 
1.0894861e+02 2.2616806e+02 -5.7232455e+00 
-4.9331395e+01 -7.7842766e+01 2.0298768e+00 
2.1554329e+01 3.4150621e+00 9.6708664e+01 
-6.0976793e+01 -7.8459766e+01 2.6126457e+00 
1.1754259e+02 2.2476836e+02 -6.0795180e+00 
1.7948388e+01 2.6969158e+00 1.1080187e+02 
-7.2711152e+01 -7.8978686e+01 3.2079377e+00 
6.1384859e+01 1.1793560e+02 -4.1676503e+01 
-4.2163279e+00 1.0303640e+01 -6.8933151e+01 
4.1955262e+00 9.6342867e+00 -5.4218313e+01 
-8.4882085e+01 -7.9416824e+01 3.8320145e+00 
1.1397868e+01 8.9899104e+00 -3.8166351e+01 
1.3269191e+01 1.9976166e+00 1.2349827e+02 
1.7372441e+01 8.3359425e+00 -2.1190332e+01 
-9.4372066e+01 -7.9455915e+01 4.3382970e+00 
2.2101065e+01 7.6762270e+00 -3.5311346e+00 
2.5568824e+01 7.0091142e+00 1.4552032e+01 
-5.0548102e+01 -3.8510632e+01 6.8068260e+01 
2.7768035e+01 6.3345855e+00 3.2799063e+01 
1.1690972e+01 1.2050622e+02 -1.7546370e+00 
2.8431107e+01 2.3951630e+02 -2.0105875e+00 
4.0179282e+01 2.3671184e+02 -2.6137338e+00 
2.8699620e+01 5.6528555e+00 5.0951368e+01 
5.1777791e+01 2.3391598e+02 -3.1922646e+00 
6.3365377e+01 2.3116467e+02 -3.7533951e+00 
7.4917184e+01 2.2850881e+02 -4.2964454e+00 
2.8373493e+01 4.9647418e+00 6.8756713e+01 
8.6429626e+01 2.2600153e+02 -4.8219891e+00 
5.9695553e-01 -3.3960691e+01 -2.5791981e-01 
-3.6610353e+00 -6.8475549e+01 -1.6897409e-01 
2.6807207e+01 4.2711951e+00 8.5974212e+01 
-1.5050225e+01 -6.9268367e+01 3.7196814e-01 
9.7854125e+01 2.2370422e+02 -5.3287013e+00 
-2.6397300e+01 -7.0047140e+01 9.1788583e-01 
-3.7847885e+01 -7.0802884e+01 1.4759842e+00 
1.0953054e+02 2.2165353e+02 -5.8335669e+00 
2.4023466e+01 3.5746032e+00 1.0237435e+02 
-4.9395642e+01 -7.1504164e+01 2.0465102e+00 
-6.1057910e+01 -7.2123770e+01 2.6307886e+00 
1.1822476e+02 2.2012908e+02 -6.1899958e+00 
2.0043306e+01 2.8725495e+00 1.1777370e+02 
-7.2811363e+01 -7.2631355e+01 3.2281545e+00 
6.1464649e+01 1.1557105e+02 -4.7008669e+01 
-4.2261848e+00 1.0212321e+01 -7.8642862e+01 
5.0551672e+00 9.5758844e+00 -6.2522000e+01 
-8.5008273e+01 -7.3042183e+01 3.8552648e+00 
1.3008878e+01 8.9635711e+00 -4.4961232e+01 
1.4897766e+01 2.1899675e+00 1.3168362e+02 
1.9610185e+01 8.3394615e+00 -2.6405628e+01 
-9.4527821e+01 -7.3016179e+01 4.3652434e+00 
2.4833340e+01 7.7074636e+00 -7.1090653e+00 
2.8656202e+01 7.0657484e+00 1.2649027e+01 
-5.0027954e+01 -3.5123413e+01 7.2498618e+01 
3.1066522e+01 6.4143146e+00 3.2584331e+01 
1.1567724e+01 1.1906111e+02 -1.7920639e+00 
2.8211233e+01 2.3647397e+02 -2.0846453e+00 
4.0031921e+01 2.3342436e+02 -2.6941719e+00 
3.2064709e+01 5.7534879e+00 5.2411952e+01 
5.1719379e+01 2.3038769e+02 -3.2790389e+00 
6.3408951e+01 2.2739810e+02 -3.8462517e+00 
3.1664814e+01 5.0843137e+00 7.1854096e+01 
7.5073208e+01 2.2450712e+02 -4.3948837e+00 
8.6707171e+01 2.2177056e+02 -4.9253388e+00 
6.2206763e-01 -3.0729507e+01 -2.1557943e-01 
-3.6280305e+00 -6.2037965e+01 -1.5491100e-01 
-1.5051691e+01 -6.2858433e+01 3.8735105e-01 
2.9892780e+01 4.4080311e+00 9.0647976e+01 
-2.6421555e+01 -6.3664735e+01 9.3411071e-01 
9.8260907e+01 2.1925623e+02 -5.4361307e+00 
-3.7886053e+01 -6.4445263e+01 1.4927425e+00 
-4.9441181e+01 -6.5164474e+01 2.0636775e+00 
2.6782648e+01 3.7274431e+00 1.0854802e+02 
1.1007598e+02 2.1700749e+02 -5.9443564e+00 
-6.1107362e+01 -6.5790924e+01 2.6484952e+00 
1.1888883e+02 2.1534388e+02 -6.3014770e+00 
2.2367186e+01 3.0402409e+00 1.2536381e+02 
-7.2864932e+01 -6.6289364e+01 3.2468292e+00 
6.1521914e+01 1.1312632e+02 -5.2872815e+01 
-4.1998776e+00 1.0107222e+01 -8.9344958e+01 
-8.5070954e+01 -6.6672242e+01 3.8757648e+00 
6.0641916e+00 9.5062550e+00 -7.1696745e+01 
1.4874894e+01 8.9283271e+00 -5.2492310e+01 
1.6689186e+01 2.3730447e+00 1.4058685e+02 
2.2195981e+01 8.3359556e+00 -3.2207243e+01 
-9.4604379e+01 -6.6575171e+01 4.3883598e+00 
2.7988729e+01 7.7330674e+00 -1.1108037e+01 
3.2218855e+01 7.1175977e+00 1.0502305e+01 
-4.9402369e+01 -3.1734624e+01 7.7312906e+01 
3.4866132e+01 6.4895524e+00 3.2309138e+01 
1.1391121e+01 1.1760242e+02 -1.8240164e+00 
2.7886575e+01 2.3339243e+02 -2.1561911e+00 
3.9784895e+01 2.3008537e+02 -2.7722325e+00 
3.5929214e+01 5.8493950e+00 5.3993578e+01 
5.1567522e+01 2.2679906e+02 -3.3637233e+00 
6.3365563e+01 2.2356276e+02 -3.9373692e+00 
3.5427521e+01 5.1984615e+00 7.5244497e+01 
7.5149313e+01 2.2042607e+02 -4.4919632e+00 
8.6913525e+01 2.1744581e+02 -5.0277508e+00 
6.3997779e-01 -2.7481453e+01 -1.7352030e-01 
-3.6091358e+00 -5.5574220e+01 -1.3751539e-01 
3.3398998e+01 4.5383621e+00 9.5770895e+01 
-1.5065116e+01 -5.6431628e+01 4.0583336e-01 
-2.6452270e+01 -5.7274246e+01 9.5299734e-01 
9.8608471e+01 2.1469582e+02 -5.5431155e+00 
-3.7921944e+01 -5.8087764e+01 1.5115093e+00 
-4.9472609e+01 -5.8832213e+01 2.0819817e+00 
2.9894536e+01 3.8724077e+00 1.1530762e+02 
1.1057930e+02 2.1222714e+02 -6.0553254e+00 
-6.1127973e+01 -5.9471466e+01 2.6662559e+00 
1.1953219e+02 2.1040502e+02 -6.4138426e+00 
2.4965141e+01 3.1984579e+00 1.3365773e+02 
-7.2872314e+01 -5.9964710e+01 3.2642844e+00 
6.1557086e+01 1.1059495e+02 -5.9332387e+01 
-8.5067447e+01 -6.0320761e+01 3.8936046e+00 
-4.1221268e+00 9.9861896e+00 -1.0116774e+02 
7.2623704e+00 9.4238163e+00 -8.1869401e+01 
1.7061666e+01 8.8831160e+00 -6.0878057e+01 
1.8671858e+01 2.5449385e+00 1.5029596e+02 
2.5220355e+01 8.3247839e+00 -3.8696971e+01 
-9.4595326e+01 -6.0148162e+01 4.4074481e+00 
3.1678623e+01 7.7526917e+00 -1.5604908e+01 
3.6382781e+01 7.1644585e+00 8.0665354e+00 
-4.8657309e+01 -2.8353173e+01 8.2554699e+01 
3.9299573e+01 6.5600811e+00 3.1963406e+01 
1.1154562e+01 1.1612250e+02 -1.8485289e+00 
2.7445971e+01 2.3025692e+02 -2.2243207e+00 
4.0423953e+01 5.9402004e+00 5.5721594e+01 
3.9431164e+01 2.2668362e+02 -2.8472033e+00 
5.1317242e+01 2.2314368e+02 -3.4457325e+00 
6.3230404e+01 2.1965698e+02 -4.0262172e+00 
3.9782283e+01 5.3065332e+00 7.8985223e+01 
7.5139466e+01 2.1626744e+02 -4.5871511e+00 
6.4650447e-01 -2.4216014e+01 -1.3233409e-01 
-3.6127144e+00 -4.9084589e+01 -1.1602455e-01 
8.7040874e+01 2.1303020e+02 -5.1286647e+00 
-1.5098782e+01 -4.9990139e+01 4.2819418e-01 
3.7429492e+01 4.6611777e+00 1.0142564e+02 
-2.6497360e+01 -5.0879807e+01 9.7532892e-01 
9.8887684e+01 2.1002421e+02 -5.6490852e+00 
-3.7962672e+01 -5.1736487e+01 1.5330464e+00 
-4.9495732e+01 -5.2515446e+01 2.1021268e+00 
3.3441076e+01 4.0080816e+00 1.2275256e+02 
1.1103164e+02 2.0730892e+02 -6.1659649e+00 
-6.1123702e+01 -5.3175469e+01 2.6846695e+00 
1.2014868e+02 2.0530210e+02 -6.5267405e+00 
2.7895642e+01 3.3453572e+00 1.4276243e+02 
-7.2835016e+01 -5.3669606e+01 3.2809526e+00 
-8.4995984e+01 -5.4002282e+01 3.9089729e+00 
6.1569317e+01 1.0796796e+02 -6.6462858e+01 
-3.9727012e+00 9.8464889e+00 -1.1426795e+02 
8.7013512e+00 9.3265555e+00 -9.3199742e+01 
2.0882106e+01 2.7033641e+00 1.6091756e+02 
1.9654755e+01 8.8265935e+00 -7.0270751e+01 
-9.4494861e+01 -5.3752083e+01 4.4223723e+00 
2.8801487e+01 8.3051531e+00 -4.6007414e+01 
3.6048789e+01 7.7659301e+00 -2.0700726e+01 
-4.7776435e+01 -2.4989366e+01 8.8275482e+01 
4.1313096e+01 7.2061118e+00 5.2816208e+00 
4.4540852e+01 6.6256624e+00 3.1533307e+01 
1.0851670e+01 1.1460863e+02 -1.8633294e+00 
4.5720420e+01 6.0254582e+00 5.7628774e+01 
2.6879555e+01 2.2704371e+02 -2.2880306e+00 
3.8966562e+01 2.2320116e+02 -2.9183657e+00 
5.0966767e+01 2.1941092e+02 -3.5245060e+00 
6.3001181e+01 2.1567718e+02 -4.1122708e+00 
4.4887130e+01 5.4077277e+00 8.3150896e+01 
7.5038711e+01 2.1203282e+02 -4.6798603e+00 
6.3689283e-01 -2.0931796e+01 -9.2735809e-02 
-3.6483540e+00 -4.2567591e+01 -8.9618727e-02 
8.7080578e+01 2.0852744e+02 -5.2273796e+00 
4.2119684e+01 4.7752270e+00 1.0771951e+02 
-1.5162360e+01 -4.3534630e+01 4.5527989e-01 
-2.6566216e+01 -4.4484387e+01 1.0019662e+00 
-3.8016792e+01 -4.5396725e+01 1.5582027e+00 
9.9086572e+01 2.0524331e+02 -5.7532336e+00 
-4.9517696e+01 -4.6221725e+01 2.1249147e+00 
3.7528926e+01 4.1327189e+00 1.3101064e+02 
1.1141957e+02 2.0224870e+02 -6.2754479e+00 
-6.1099757e+01 -4.6912732e+01 2.7044458e+00 
3.1234273e+01 3.4786889e+00 1.5281308e+02 
1.2072664e+02 2.0002158e+02 -6.6394576e+00 
-7.2755777e+01 -4.7416287e+01 3.2973895e+00 
-8.4856057e+01 -4.7731923e+01 3.9221851e+00 
6.1555549e+01 1.0523330e+02 -7.4354681e+01 
-3.7251373e+00 9.6846144e+00 -1.2883868e+02 
1.0447723e+01 9.2118752e+00 -1.0589036e+02 
2.3366397e+01 2.8455681e+00 1.7258240e+02 
2.2764734e+01 8.7570197e+00 -8.0866951e+01 
-9.4298391e+01 -4.7405435e+01 4.4331010e+00 
3.3092537e+01 8.2760404e+00 -5.4311584e+01 
4.1288488e+01 7.7722655e+00 -2.6528202e+01 
-4.6740788e+01 -2.1655006e+01 9.4536745e+01 
4.7224378e+01 7.2422823e+00 2.0682589e+00 
5.0816147e+01 6.6859882e+00 3.1000323e+01 
5.2041440e+01 6.1045831e+00 5.9757895e+01 
1.0476950e+01 1.1304157e+02 -1.8658749e+00 
2.6180234e+01 2.2371770e+02 -2.3462460e+00 
3.8391545e+01 2.1961178e+02 -2.9850453e+00 
5.0519160e+01 2.1558506e+02 -3.5995609e+00 
5.0947178e+01 5.5010005e+00 8.7839108e+01 
6.2679392e+01 2.1161745e+02 -4.1950487e+00 
7.4843879e+01 2.0772367e+02 -4.7694606e+00 
6.0583369e-01 -1.7626295e+01 -5.5552750e-02 
-3.7269372e+00 -3.6019549e+01 -5.7429498e-02 
-1.5267188e+01 -3.7063941e+01 4.8800137e-01 
4.7645013e+01 4.8789003e+00 1.1479234e+02 
8.7023164e+01 2.0394237e+02 -5.3230278e+00 
-2.6670019e+01 -3.8089682e+01 1.0338434e+00 
-3.8094546e+01 -3.9072991e+01 1.5879063e+00 
9.9189475e+01 2.0035617e+02 -5.8544449e+00 
-4.9547119e+01 -3.9958140e+01 2.1512348e+00 
4.2295819e+01 4.2441117e+00 1.4024708e+02 
1.1172334e+02 1.9704192e+02 -6.3825033e+00 
-6.1062653e+01 -4.0692751e+01 2.7263987e+00 
3.5078106e+01 3.5956647e+00 1.6398177e+02 
-7.2638658e+01 -4.1216820e+01 3.3142805e+00 
1.2124642e+02 1.9454626e+02 -6.7507461e+00 
-8.4648739e+01 -4.1525024e+01 3.9337136e+00 
6.1509250e+01 1.0237499e+02 -8.3116849e+01 
-3.3452304e+00 9.4960357e+00 -1.4511916e+02 
2.6183936e+01 2.9682085e+00 1.8545225e+02 
1.2586611e+01 9.0763731e+00 -1.2019908e+02 
2.6533294e+01 8.6720854e+00 -9.2920564e+01 
-9.4003246e+01 -4.1127963e+01 4.4397621e+00 
3.8290245e+01 8.2360680e+00 -6.3834798e+01 
4.7641165e+01 7.7709769e+00 -3.3260859e+01 
-4.5528458e+01 -1.8363364e+01 1.0141256e+02 
5.4392754e+01 7.2725543e+00 -1.6773427e+00 
5.8416418e+01 6.7405827e+00 3.0340394e+01 
5.9673397e+01 6.1767224e+00 6.2165269e+01 
1.0026746e+01 1.1139397e+02 -1.8534321e+00 
2.5345707e+01 2.2023003e+02 -2.3978696e+00 
3.7713325e+01 2.1587952e+02 -3.0466803e+00 
4.9984219e+01 2.1164439e+02 -3.6705542e+00 
5.8225688e+01 5.5849008e+00 9.3177731e+01 
6.2271768e+01 2.0746919e+02 -4.2741558e+00 
7.4554408e+01 2.0334130e+02 -4.8552904e+00 
5.4745606e-01 -1.4295521e+01 -2.1690951e-02 
-3.8608185e+00 -2.9433952e+01 -1.8542547e-02 
5.4230209e+01 4.9700402e+00 1.2282651e+02 
-1.5426743e+01 -3.0574759e+01 5.2733801e-01 
8.6858328e+01 1.9928118e+02 -5.4145422e+00 
-2.6822245e+01 -3.1696091e+01 1.0719667e+00 
-3.8208229e+01 -3.2769207e+01 1.6231521e+00 
9.9176034e+01 1.9536733e+02 -5.9512036e+00 
-4.9594237e+01 -3.3731573e+01 2.1820427e+00 
4.7917661e+01 4.3393921e+00 1.5067576e+02 
1.1191469e+02 1.9168373e+02 -6.4852535e+00 
-6.1020166e+01 -3.4524837e+01 2.7514244e+00 
3.9550551e+01 3.6927710e+00 1.7648828e+02 
-7.2488984e+01 -3.5082938e+01 3.3324333e+00 
1.2167710e+02 1.8885476e+02 -6.8585893e+00 
-8.4376889e+01 -3.5396656e+01 3.9442112e+00 
6.1418703e+01 9.9372298e+01 -9.2881106e+01 
-2.7893197e+00 9.2748441e+00 -1.6340660e+02 
2.9409532e+01 3.0672026e+00 1.9972836e+02 
1.5225733e+01 8.9155223e+00 -1.3645410e+02 
3.1140195e+01 8.5686520e+00 -1.0675887e+02 
-9.3609472e+01 -3.4939995e+01 4.4427100e+00 
4.4644747e+01 8.1832996e+00 -7.4869155e+01 
5.5416621e+01 7.7609751e+00 -4.1123969e+01 
-4.4114287e+01 -1.5128946e+01 1.0899267e+02 
6.3169562e+01 7.2962135e+00 -6.0894855e+00 
6.7711509e+01 6.7886198e+00 2.9523435e+01 
6.8979735e+01 6.2405302e+00 6.4925643e+01 
9.5005617e+00 1.0962882e+02 -1.8232229e+00 
2.4381061e+01 2.1651593e+02 -2.4418571e+00 
3.6948290e+01 2.1195744e+02 -3.1029002e+00 
4.9380455e+01 2.0756050e+02 -3.7373447e+00 
6.7056046e+01 5.6573005e+00 9.9334363e+01 
6.1791727e+01 2.0322060e+02 -4.3493209e+00 
7.4173166e+01 1.9888659e+02 -4.9366631e+00 
4.5523985e-01 -1.0933407e+01 7.9310644e-03 
-4.0642097e+00 -2.2800581e+01 2.8012856e-02 
6.2159119e+01 5.0456432e+00 1.3205953e+02 
-1.5657396e+01 -2.4061224e+01 5.7435481e-01 
8.6574917e+01 1.9455149e+02 -5.5006184e+00 
-2.7039423e+01 -2.5302767e+01 1.1174208e+00 
-3.8372724e+01 -2.6489071e+01 1.6649893e+00 
9.9020020e+01 1.9028311e+02 -6.0414875e+00 
5.4615905e+01 4.4147340e+00 1.6257319e+02 
-4.9671106e+01 -2.7549182e+01 2.2183289e+00 
-6.0981220e+01 -2.8418488e+01 2.7804618e+00 
1.1195423e+02 1.8616930e+02 -6.5810146e+00 
4.4806280e+01 3.7655087e+00 1.9061330e+02 
-7.2313078e+01 -2.9026008e+01 3.3527496e+00 
1.2197228e+02 1.8292105e+02 -6.9598966e+00 
-8.4045146e+01 -2.9361004e+01 3.9545242e+00 
6.1264735e+01 9.6198668e+01 -1.0380676e+02 
3.3136449e+01 3.1375322e+00 2.1566169e+02 
-2.0024726e+00 9.0132607e+00 -1.8407026e+02 
1.8499747e+01 8.7232091e+00 -1.5507231e+02 
-9.3120600e+01 -2.8861333e+01 4.4426033e+00 
3.6810812e+01 8.4423508e+00 -1.2280175e+02 
5.2470316e+01 8.1149156e+00 -8.7790706e+01 
6.5004341e+01 7.7405225e+00 -5.0407202e+01 
-4.2469656e+01 -1.1966933e+01 1.1738611e+02 
7.3996208e+01 7.3119700e+00 -1.1339444e+01 
7.9165249e+01 6.8286038e+00 2.8513739e+01 
8.0415018e+01 6.2937817e+00 6.8139145e+01 
8.9027820e+00 1.0769824e+02 -1.7726555e+00 
2.3301875e+01 2.1249340e+02 -2.4773233e+00 
3.6124377e+01 2.0778711e+02 -3.1536057e+00 
4.8736767e+01 2.0329775e+02 -3.8000380e+00 
7.7853799e+01 5.7149501e+00 1.0652859e+02 
6.1260543e+01 1.9885601e+02 -4.4204130e+00 
3.2177053e-01 -7.5309407e+00 3.2493715e-02 
7.3707149e+01 1.9435932e+02 -5.0128573e+00 
-4.3539063e+00 -1.6104291e+01 8.3297546e-02 
-1.5979545e+01 -1.7514432e+01 6.3023971e-01 
7.1784144e+01 5.1013874e+00 1.4279973e+02 
-2.7342232e+01 -1.8907672e+01 1.1713880e+00 
8.6160892e+01 1.8976192e+02 -5.5796635e+00 
-3.8606340e+01 -2.0236527e+01 1.7145138e+00 
9.8688050e+01 1.8511163e+02 -6.1226446e+00 
-4.9792017e+01 -2.1419125e+01 2.2610823e+00 
6.2664255e+01 4.4649072e+00 1.7629541e+02 
-6.0955793e+01 -2.2384067e+01 2.8144346e+00 
1.1178825e+02 1.8049394e+02 -6.6660539e+00 
5.1035447e+01 3.8080212e+00 2.0671416e+02 
-7.2117804e+01 -2.3057267e+01 3.3761700e+00 
1.2206480e+02 1.7671408e+02 -7.0501085e+00 
-8.3659588e+01 -2.3430731e+01 3.9656819e+00 
3.7478701e+01 3.1730010e+00 2.3356464e+02 
6.1017710e+01 9.2820655e+01 -1.1608594e+02 
-9.1682156e-01 8.7009629e+00 -2.0756752e+02 
2.2574427e+01 8.4910518e+00 -1.7658049e+02 
-9.2544236e+01 -2.2909600e+01 4.4404873e+00 
4.3823704e+01 8.2869828e+00 -1.4158409e+02 
6.2156397e+01 8.0266939e+00 -1.0307929e+02 
7.6887327e+01 7.7067757e+00 -6.1478747e+01 
-4.0562488e+01 -8.8921498e+00 1.2672523e+02 
8.7419507e+01 7.3174896e+00 -1.7641806e+01 
9.3350654e+01 6.8578336e+00 2.7272167e+01 
9.4538420e+01 6.3327408e+00 7.1941349e+01 
8.2447804e+00 1.0554320e+02 -1.6996602e+00 
2.2137630e+01 2.0806373e+02 -2.5036813e+00 
3.5282822e+01 2.0329929e+02 -3.1990247e+00 
9.1127299e+01 5.7527655e+00 1.1504809e+02 
4.8093178e+01 1.9881321e+02 -3.8589803e+00 
6.0707742e+01 1.9435485e+02 -4.4874066e+00 
1.3823802e-01 -4.0749418e+00 5.1445112e-02 
-4.7504805e+00 -9.3234199e+00 1.4852980e-01 
7.3167813e+01 1.8975674e+02 -5.0830732e+00 
-1.6419112e+01 -1.0921688e+01 6.9636707e-01 
8.3533614e+01 5.1309066e+00 1.5544595e+02 
-2.7756972e+01 -1.2507394e+01 1.2351904e+00 
8.5603275e+01 1.8492097e+02 -5.6497317e+00 
-3.8932088e+01 -1.4016064e+01 1.7728798e+00 
-4.9974372e+01 -1.5351326e+01 2.3112642e+00 
7.2393034e+01 4.4826087e+00 1.9229830e+02 
9.8138333e+01 1.7986245e+02 -6.1912581e+00 
-6.0955150e+01 -1.6433851e+01 2.8541871e+00 
1.1134525e+02 1.7465335e+02 -6.7353086e+00 
5.8465764e+01 3.8125806e+00 2.2524297e+02 
-7.1910076e+01 -1.7188545e+01 3.4035915e+00 
1.2186031e+02 1.7019776e+02 -7.1227016e+00 
-8.3226993e+01 -1.7616569e+01 3.9788506e+00 
4.2571765e+01 3.1659242e+00 2.5382416e+02 
6.0633516e+01 8.9196788e+01 -1.2994889e+02 
5.4938800e-01 8.3241243e+00 -2.3446133e+02 
-9.1892205e+01 -1.7098061e+01 4.4378668e+00 
2.7649766e+01 8.2074289e+00 -2.0163928e+02 
5.2517057e+01 8.0935883e+00 -1.6378118e+02 
7.4177731e+01 7.9122132e+00 -1.2134071e+02 
-3.8357665e+01 -5.9174400e+00 1.3716983e+02 
9.1655263e+01 7.6550444e+00 -7.4800424e+01 
1.0410634e+02 7.3086422e+00 -2.5259804e+01 
1.1096395e+02 6.8715358e+00 2.5761496e+01 
1.1202497e+02 6.3511479e+00 7.6518183e+01 
7.5472416e+00 1.0309473e+02 -1.6031403e+00 
2.0934828e+01 2.0311503e+02 -2.5208051e+00 
3.4478258e+01 1.9841665e+02 -3.2397050e+00 
1.0748475e+02 5.7627194e+00 1.2527032e+02 
4.7499575e+01 1.9405707e+02 -3.9146520e+00 
6.0170005e+01 1.8968999e+02 -4.5502579e+00 
-1.0641775e-01 -5.4656151e-01 6.4735670e-02 
-5.2799892e+00 -2.4278463e+00 2.2519310e-01 
7.2570765e+01 1.8507090e+02 -5.1463350e+00 
-1.7009237e+01 -4.2653371e+00 7.7438673e-01 
9.7914447e+01 5.1246723e+00 1.7051214e+02 
-2.8317287e+01 -6.0962245e+00 1.3103603e+00 
8.4888207e+01 1.8003472e+02 -5.7084444e+00 
-3.9379581e+01 -7.8322200e+00 1.8413515e+00 
-5.0240540e+01 -9.3578217e+00 2.3698255e+00 
8.4188451e+01 4.4574981e+00 2.1116164e+02 
9.7319725e+01 1.7454548e+02 -6.2430120e+00 
-6.0993036e+01 -1.0583265e+01 2.9004437e+00 
1.1053219e+02 1.6864404e+02 -6.7820760e+00 
6.7359994e+01 3.7688562e+00 2.4676683e+02 
-7.1696817e+01 -1.1433786e+01 3.4357694e+00 
1.2122944e+02 1.6333154e+02 -7.1685805e+00 
-8.2753766e+01 -1.1927616e+01 3.9952404e+00 
4.8569895e+01 3.1067798e+00 2.7691507e+02 
6.0047937e+01 8.5276778e+01 -1.4566861e+02 
2.4909737e+00 7.8641710e+00 -2.6543777e+02 
-9.1179900e+01 -1.1433185e+01 4.4367482e+00 
3.3960290e+01 7.8559980e+00 -2.3106849e+02 
6.3291872e+01 7.8490973e+00 -1.9023612e+02 
8.9101340e+01 7.7615884e+00 -1.4333078e+02 
-3.5818323e+01 -3.0512631e+00 1.4891095e+02 
1.1001504e+02 7.5776712e+00 -9.0943103e+01 
1.2485600e+02 7.2783204e+00 -3.4508448e+01 
1.3283573e+02 6.8615230e+00 2.3956941e+01 
1.3367237e+02 6.3386577e+00 8.2128421e+01 
6.8424835e+00 1.0027818e+02 -1.4835408e+00 
1.9758881e+01 1.9753062e+02 -2.5291975e+00 
3.3775510e+01 1.9305932e+02 -3.2763753e+00 
1.2763463e+02 5.7321314e+00 1.3769245e+02 
4.7011001e+01 1.8897361e+02 -3.9673928e+00 
5.9687545e+01 1.8482491e+02 -4.6086360e+00 
-4.2671485e-01 3.0803102e+00 7.3115217e-02 
-5.9759893e+00 4.6229853e+00 3.1517670e-01 
-1.7791577e+01 2.4791956e+00 8.6632314e-01 
1.1550613e+02 5.0683636e+00 1.8865913e+02 
7.1934550e+01 1.8028398e+02 -5.2013205e+00 
-2.9065755e+01 3.3638347e-01 1.3987417e+00 
-3.9987714e+01 -1.6870898e+00 1.9214289e+00 
8.4001408e+01 1.7510273e+02 -5.7529031e+00 
-5.0621443e+01 -3.4515461e+00 2.4378284e+00 
9.8482333e+01 4.3747764e+00 2.3361722e+02 
9.6171706e+01 1.6916955e+02 -6.2725918e+00 
-6.1089021e+01 -4.8518566e+00 2.9538624e+00 
1.0923099e+02 1.6246429e+02 -6.7977058e+00 
7.8004788e+01 3.6629911e+00 2.7198905e+02 
-7.1486494e+01 -5.8115350e+00 3.4732522e+00 
1.1999869e+02 1.5607296e+02 -7.1753612e+00 
-8.2244981e+01 -6.3733047e+00 4.0159606e+00 
5.5636956e+01 2.9837371e+00 3.0341214e+02 
5.9168962e+01 8.1001048e+01 -1.6356368e+02 
-9.0424364e+01 -5.9125092e+00 4.4396076e+00 
5.0113050e+00 7.2958694e+00 -3.0132109e+02 
4.1769566e+01 7.4137348e+00 -2.6587143e+02 
7.6608041e+01 7.5341665e+00 -2.2198782e+02 
1.0758649e+02 7.5596680e+00 -1.6998013e+02 
-3.2908639e+01 -2.9466210e-01 1.6217328e+02 
1.3279541e+02 7.4622902e+00 -1.1060195e+02 
1.5060778e+02 7.2147237e+00 -4.5754212e+01 
1.5993747e+02 6.8141661e+00 2.1864543e+01 
1.6040115e+02 6.2784730e+00 8.9137823e+01 
6.1757133e+00 9.7021424e+01 -1.3434719e+00 
1.8692891e+01 1.9120474e+02 -2.5301038e+00 
1.5237564e+02 5.6411531e+00 1.5297440e+02 
3.3241016e+01 1.8715403e+02 -3.3095877e+00 
4.6677295e+01 1.8350300e+02 -4.0168617e+00 
5.9296783e+01 1.7970895e+02 -4.6614593e+00 
-8.4213041e-01 6.8398649e+00 7.8470130e-02 
-6.8812263e+00 1.1881439e+01 4.2091691e-01 
1.3694045e+02 4.9404284e+00 2.1073680e+02 
-1.8815925e+01 9.3463414e+00 9.7463465e-01 
7.1278031e+01 1.7536072e+02 -5.2460916e+00 
-3.0054408e+01 6.8113485e+00 1.5026077e+00 
-4.0807976e+01 4.4261158e+00 2.0150827e+00 
8.2929799e+01 1.7011167e+02 -5.7796388e+00 
1.1572568e+02 4.2133406e+00 2.6058246e+02 
-5.1162940e+01 2.3584155e+00 2.5167666e+00 
9.4626514e+01 1.6373976e+02 -6.2736799e+00 
-6.1275935e+01 7.3756113e-01 3.0153066e+00 
1.0729623e+02 1.5611743e+02 -6.7713717e+00 
9.0684328e+01 3.4762531e+00 3.0176972e+02 
-7.1294352e+01 -3.4859035e-01 3.5164504e+00 
-8.1704839e+01 -9.6791826e-01 4.0418543e+00 
1.1793989e+02 1.4838265e+02 -7.1265754e+00 
6.3925587e+01 2.7823966e+00 3.3399758e+02 
-8.9640786e+01 -5.2469161e-01 4.4492296e+00 
5.7864641e+01 7.6302717e+01 -1.8399715e+02 
8.2111590e+00 6.5854295e+00 -3.4308143e+02 
5.1353848e+01 6.8476069e+00 -3.0725423e+02 
9.2966728e+01 7.1203622e+00 -2.6029582e+02 
1.3037077e+02 7.2831104e+00 -2.0241925e+02 
-2.9599881e+01 2.3625236e+00 1.7721458e+02 
1.6094020e+02 7.2895128e+00 -1.3461142e+02 
1.8244075e+02 7.0988326e+00 -5.9410998e+01 
1.9338167e+02 6.7075270e+00 1.9550290e+01 
1.9324640e+02 6.1438656e+00 9.8071167e+01 
1.8257256e+02 5.4589909e+00 1.7200213e+02 
5.6052416e+00 9.3269900e+01 -1.1883701e+00 
1.7831437e+01 1.8406694e+02 -2.5255111e+00 
3.2925697e+01 1.8064889e+02 -3.3390211e+00 
4.6525228e+01 1.7758325e+02 -4.0611595e+00 
-1.3780615e+00 1.0773512e+01 8.4125073e-02 
5.9016955e+01 1.7427095e+02 -4.7061494e+00 
-8.0473221e+00 1.9410600e+01 5.4544137e-01 
1.6286012e+02 4.7088208e+00 2.3784359e+02 
-2.0135966e+01 1.6384764e+01 1.1021417e+00 
-3.1342071e+01 1.3369731e+01 1.6247271e+00 
7.0616159e+01 1.7023661e+02 -5.2777425e+00 
-4.1907632e+01 1.0536389e+01 2.1251252e+00 
8.1664824e+01 1.6502464e+02 -5.7846272e+00 
1.3633644e+02 3.9430328e+00 2.9320101e+02 
-5.1935682e+01 8.0787104e+00 2.6091981e+00 
9.2615792e+01 1.5825514e+02 -6.2392142e+00 
-6.1614158e+01 6.1643371e+00 3.0865403e+00 
1.0562882e+02 3.1839355e+00 3.3714366e+02 
1.0455612e+02 1.4961699e+02 -6.6900615e+00 
-7.1155054e+01 4.9171170e+00 3.5660553e+00 
-8.1141373e+01 4.2600785e+00 4.0734099e+00 
1.1475951e+02 1.4023825e+02 -7.0009281e+00 
7.3536392e+01 2.4850202e+00 3.6945858e+02 
-8.8837366e+01 4.7469083e+00 4.4683161e+00 
5.5948530e+01 7.1109968e+01 -2.0736945e+02 
1.2166762e+01 5.6862613e+00 -3.9182922e+02 
6.2967413e+01 6.1113762e+00 -3.5663017e+02 
1.1286819e+02 6.5649858e+00 -3.0665848e+02 
-2.5881251e+01 4.9441382e+00 1.9431922e+02 
1.5823038e+02 6.8969085e+00 -2.4200097e+02 
1.9548070e+02 7.0293370e+00 -1.6396308e+02 
2.2156037e+02 6.9014228e+00 -7.5934080e+01 
2.3441533e+02 6.5072137e+00 1.7181989e+01 
2.3334160e+02 5.8931264e+00 1.0968953e+02 
2.1911570e+02 5.1385751e+00 1.9598479e+02 
5.1971908e+00 8.9008495e+01 -1.0268697e+00 
1.7265557e+01 1.7611898e+02 -2.5178860e+00 
3.2838356e+01 1.7353214e+02 -3.3624035e+00 
4.6529288e+01 1.7115725e+02 -4.0955064e+00 
-2.0661166e+00 1.4923977e+01 9.5022898e-02 
-9.5301998e+00 2.7278658e+01 6.9218008e-01 
5.8829647e+01 1.6840986e+02 -4.7375889e+00 
-2.1797273e+01 2.3661080e+01 1.2516175e+00 
1.9384832e+02 4.3259292e+00 2.7141249e+02 
-3.2985359e+01 2.0088642e+01 1.7682640e+00 
6.9950530e+01 1.6480247e+02 -5.2918489e+00 
-4.3369623e+01 1.6717443e+01 2.2556312e+00 
8.0209096e+01 1.5976486e+02 -5.7635210e+00 
-5.3048270e+01 1.3756179e+01 2.7198037e+00 
1.6060922e+02 3.5221641e+00 3.3289734e+02 
-6.2215164e+01 1.1426778e+01 3.1716066e+00 
9.0084348e+01 1.5270081e+02 -6.1620291e+00 
1.2292340e+02 2.7529354e+00 3.7933003e+02 
-7.1148671e+01 9.9373144e+00 3.6241835e+00 
1.0082202e+02 1.4300103e+02 -6.5392001e+00 
-8.0581192e+01 9.2561485e+00 4.1110161e+00 
1.1008737e+02 1.3165366e+02 -6.7717900e+00 
8.4444387e+01 2.0719447e+00 4.1066812e+02 
-8.8010991e+01 9.9097567e+00 4.4988987e+00 
5.3150977e+01 6.5361239e+01 -2.3410043e+02 
1.6894145e+01 4.5390117e+00 -4.4878126e+02 
7.6779620e+01 5.1369672e+00 -4.1560193e+02 
1.3672797e+02 5.8067986e+00 -3.6280736e+02 
-2.1783787e+01 7.4902322e+00 2.1378243e+02 
1.9189433e+02 6.3474379e+00 -2.9032336e+02 
2.3746913e+02 6.6381655e+00 -1.9982923e+02 
2.6926417e+02 6.5786356e+00 -9.5822224e+01 
2.8440656e+02 6.1616484e+00 1.5082063e+01 
2.8190039e+02 5.4620901e+00 1.2510475e+02 
2.6286546e+02 4.6079288e+00 2.2659944e+02 
5.0196264e+00 8.4292530e+01 -8.7107460e-01 
1.7058471e+01 1.6747973e+02 -2.5095930e+00 
3.2907795e+01 1.6586301e+02 -3.3740948e+00 
4.6574592e+01 1.6418077e+02 -4.1106366e+00 
-2.9393541e+00 1.9322834e+01 1.1748974e-01 
-1.1376586e+01 3.5542549e+01 8.6423178e-01 
2.3032471e+02 3.7232475e+00 3.1334846e+02 
-2.3814120e+01 3.1262771e+01 1.4248522e+00 
5.8642344e+01 1.6199807e+02 -4.7465807e+00 
-3.5016404e+01 2.7097627e+01 1.9361202e+00 
6.9253447e+01 1.5888161e+02 -5.2817019e+00 
-4.5283849e+01 2.3123772e+01 2.4122391e+00 
-5.4657608e+01 1.9519907e+01 2.8567199e+00 
1.8857250e+02 2.8917467e+00 3.8144615e+02 
7.8578624e+01 1.5419006e+02 -5.7117870e+00 
-6.3275703e+01 1.6581140e+01 3.2792082e+00 
8.7017905e+01 1.4703466e+02 -6.0364277e+00 
1.4236031e+02 2.1439599e+00 4.2973669e+02 
-7.1446123e+01 1.4671745e+01 3.6968138e+00 
9.5911490e+01 1.3633890e+02 -6.3041523e+00 
-8.0105847e+01 1.3924620e+01 4.1562146e+00 
1.0347994e+02 1.2273133e+02 -6.4078375e+00 
9.6376304e+01 1.5187526e+00 4.5853206e+02 
-8.7146954e+01 1.4940988e+01 4.5412922e+00 
4.9113076e+01 5.9014631e+01 -2.6460428e+02 
2.2299367e+01 3.0585409e+00 -5.1519704e+02 
9.2775869e+01 3.8357167e+00 -4.8587800e+02 
1.6472893e+02 4.7499237e+00 -4.3067950e+02 
-1.7415851e+01 1.0047314e+01 2.3587736e+02 
2.3187654e+02 5.5604105e+00 -3.4922815e+02 
2.8784268e+02 6.0511043e+00 -2.4361780e+02 
3.2686743e+02 6.0715156e+00 -1.1964193e+02 
3.4482910e+02 5.5941789e+00 1.3780506e+01 
3.4020528e+02 4.7529581e+00 1.4593350e+02 
3.1459547e+02 3.7593409e+00 2.6622645e+02 
5.1221199e+00 7.9282824e+01 -7.3575728e-01 
1.7214720e+01 1.5843612e+02 -2.5021510e+00 
3.2943582e+01 1.5780389e+02 -3.3636803e+00 
-4.0264081e+00 2.3965871e+01 1.5862821e-01 
4.6409289e+01 1.5666615e+02 -4.0912681e+00 
-1.3599047e+01 4.4218330e+01 1.0628887e+00 
-2.6130000e+01 3.9285686e+01 1.6207354e+00 
2.7240464e+02 2.7968519e+00 3.6621945e+02 
5.8245535e+01 1.5488512e+02 -4.7181073e+00 
-3.7403266e+01 3.4596833e+01 2.1294846e+00 
6.8415094e+01 1.5224110e+02 -5.2363927e+00 
-4.7712816e+01 3.0022958e+01 2.6013160e+00 
-5.6965059e+01 2.5653782e+01 3.0328465e+00 
2.1978922e+02 1.9790933e+00 4.4109585e+02 
7.6798000e+01 1.4804420e+02 -5.6246016e+00 
-6.5110918e+01 2.1818101e+01 3.4258995e+00 
8.3469237e+01 1.4114100e+02 -5.8597693e+00 
1.6321886e+02 1.3030794e+00 4.8993060e+02 
-7.2382829e+01 1.9144738e+01 3.7984340e+00 
8.9711695e+01 1.2974525e+02 -5.9745738e+00 
-7.9923211e+01 1.8138585e+01 4.2149044e+00 
9.4418492e+01 1.1369492e+02 -5.8747413e+00 
1.0862027e+02 8.0842138e-01 5.1390089e+02 
-8.6247811e+01 1.9739831e+01 4.5941760e+00 
4.3325836e+01 5.2101132e+01 -2.9924613e+02 
2.8145336e+01 1.1539386e+00 -5.9224672e+02 
1.1062687e+02 2.0638168e+00 -5.6914290e+02 
-1.3052181e+01 1.2660717e+01 2.6080475e+02 
1.9657825e+02 3.2766656e+00 -5.1224612e+02 
2.7817757e+02 4.4117160e+00 -4.2082666e+02 
3.4715271e+02 5.1941270e+00 -2.9702659e+02 
3.9555978e+02 5.2976139e+00 -1.4814181e+02 
4.1723514e+02 4.7014245e+00 1.4042749e+01 
4.0963011e+02 3.6188514e+00 1.7453324e+02 
3.7493579e+02 2.4182872e+00 3.1824293e+02 
5.5214015e+00 7.4276754e+01 -6.3746941e-01 
1.7642621e+01 1.4947982e+02 -2.4949767e+00 
3.2628094e+01 1.4966159e+02 -3.3166137e+00 
-5.3309103e+00 2.8777639e+01 2.2463472e-01 
-1.6140942e+01 5.3231177e+01 1.2853473e+00 
4.5614418e+01 1.4873869e+02 -4.0155277e+00 
-2.8565728e+01 4.7804936e+01 1.8324016e+00 
3.1975310e+02 1.4116401e+00 4.3361895e+02 
-3.9980870e+01 4.2828591e+01 2.3443212e+00 
5.7231752e+01 1.4702574e+02 -4.6294426e+00 
-5.0622696e+01 3.7837376e+01 2.8275872e+00 
6.7175513e+01 1.4458118e+02 -5.1378217e+00 
-6.0151372e+01 3.2654946e+01 3.2643368e+00 
2.5310295e+02 6.6763772e-01 5.1466611e+02 
7.4795215e+01 1.4097476e+02 -5.4931400e+00 
-6.8163950e+01 2.7617835e+01 3.6398282e+00 
7.9587578e+01 1.3471740e+02 -5.6342712e+00 
1.8399365e+02 1.9173320e-01 5.6162476e+02 
-7.4543610e+01 2.3589894e+01 3.9592002e+00 
8.2249614e+01 1.2327934e+02 -5.5487685e+00 
-8.0510895e+01 2.1801798e+01 4.3052847e+00 
1.1978476e+02 -8.7489237e-02 5.7740522e+02 
8.2404669e+01 1.0499305e+02 -5.1429732e+00 
-8.5394259e+01 2.4108055e+01 4.6543657e+00 
3.5293315e+01 4.4761317e+01 -3.3832844e+02 
3.4062124e+01 -1.3191209e+00 -6.8084701e+02 
1.2958541e+02 -3.1547536e-01 -6.6669708e+02 
-9.2260948e+00 1.5322839e+01 2.8861124e+02 
2.3119178e+02 1.1470338e+00 -6.0933685e+02 
3.2975195e+02 2.7971703e+00 -5.0720242e+02 
4.1507283e+02 3.9318118e+00 -3.6233422e+02 
4.7610536e+02 4.1960309e+00 -1.8241808e+02 
5.0322013e+02 3.3378636e+00 1.6838509e+01 
4.9165461e+02 1.8164809e+00 2.1420331e+02 
4.4437294e+02 3.4975436e-01 3.8768289e+02 
6.1667923e+00 6.9718557e+01 -5.9189306e-01 
1.8143720e+01 1.4130175e+02 -2.4851670e+00 
3.1538489e+01 1.4191386e+02 -3.2159824e+00 
-6.8155784e+00 3.3567805e+01 3.1896851e-01 
-1.8830105e+01 6.2350481e+01 1.5215388e+00 
-3.0787216e+01 5.6805661e+01 2.0446267e+00 
3.7138793e+02 -6.9584463e-01 5.2036961e+02 
4.3686695e+01 1.4075288e+02 -3.8617344e+00 
-4.2365913e+01 5.2005000e+01 2.5661739e+00 
5.4951344e+01 1.3863931e+02 -4.4496959e+00 
-5.3726273e+01 4.7037727e+01 3.0853443e+00 
6.4872012e+01 1.3591936e+02 -4.9537057e+00 
2.8646314e+02 -1.1252088e+00 6.0583168e+02 
-6.4230652e+01 4.1357113e+01 3.5660271e+00 
7.2267730e+01 1.3240315e+02 -5.2966980e+00 
-7.2870603e+01 3.4881221e+01 3.9580459e+00 
7.5403940e+01 1.2722378e+02 -5.3590606e+00 
2.0219622e+02 -1.2814510e+00 6.4652043e+02 
-7.8828898e+01 2.8795391e+01 4.2356457e+00 
7.3824014e+01 1.1671700e+02 -5.0424191e+00 
-8.2821454e+01 2.5114450e+01 4.4730642e+00 
1.2755820e+02 -1.1535662e+00 6.4926018e+02 
6.7023480e+01 9.7070379e+01 -4.1956256e+00 
-8.4976800e+01 2.7743701e+01 4.7266855e+00 
2.4535583e+01 3.7275708e+01 -3.8213079e+02 
3.9899224e+01 -4.4889525e+00 -7.8162541e+02 
1.4850752e+02 -3.6188468e+00 -7.7891831e+02 
-6.9913365e+00 1.7950001e+01 3.1912138e+02 
2.6635418e+02 -1.7339743e+00 -7.2262267e+02 
3.8383826e+02 3.2760938e-01 -6.1059512e+02 
4.8940286e+02 2.3201174e+00 -4.4190614e+02 
5.6825591e+02 2.6481100e+00 -2.2472209e+02 
6.0423864e+02 1.3362706e+00 2.3132914e+01 
5.8794245e+02 -9.4502211e-01 2.7012276e+02 
5.2285634e+02 -2.9861849e+00 4.8120106e+02 
6.9272110e+00 6.6155046e+01 -6.1152115e-01 
1.8427786e+01 1.3470673e+02 -2.4674354e+00 
-8.3688774e+00 3.7996552e+01 4.3964243e-01 
2.9327993e+01 1.3520795e+02 -3.0525906e+00 
-2.1358885e+01 7.1127233e+01 1.7521142e+00 
-3.2289798e+01 6.6075174e+01 2.2311888e+00 
4.2565957e+02 -3.6831105e+00 6.3345221e+02 
4.0144369e+01 1.3342680e+02 -3.6153532e+00 
-4.3958683e+01 6.2126768e+01 2.7673706e+00 
5.0768340e+01 1.3053749e+02 -4.1596180e+00 
-5.6281315e+01 5.7941477e+01 3.3452297e+00 
6.0279368e+01 1.2698273e+02 -4.6319315e+00 
-6.8597902e+01 5.2584963e+01 3.9245584e+00 
3.1703687e+02 -3.7136213e+00 7.1873789e+02 
6.7753861e+01 1.2268761e+02 -4.9718263e+00 
-7.9353562e+01 4.5392893e+01 4.4203176e+00 
7.0610147e+01 1.1724822e+02 -5.0099233e+00 
2.1457596e+02 -3.0986603e+00 7.4610052e+02 
-8.6227831e+01 3.6463103e+01 4.7113369e+00 
6.4663189e+01 1.0918403e+02 -4.4773397e+00 
-8.8559149e+01 2.9290455e+01 4.8210781e+00 
1.2892611e+02 -2.4104983e+00 7.2914708e+02 
4.7813466e+01 9.0220518e+01 -3.0318194e+00 
-8.6126853e+01 3.0671947e+01 4.8491561e+00 
1.1366163e+01 2.9996578e+01 -4.3101806e+02 
4.6318746e+01 -8.5286302e+00 -8.9466454e+02 
-8.0797083e+00 2.0306419e+01 3.5192996e+02 
1.6679253e+02 -8.0339644e+00 -9.0511901e+02 
2.9877523e+02 -6.0882311e+00 -8.5016006e+02 
4.3494473e+02 -2.5808485e+00 -7.3006456e+02 
5.6491733e+02 -2.4865982e-01 -5.4060909e+02 
6.6926809e+02 1.0384964e+00 -2.7764614e+02 
7.2121873e+02 -1.4488109e+00 3.4094461e+01 
6.9925330e+02 -5.6580697e+00 3.4818930e+02 
6.0954074e+02 -7.7276980e+00 6.1058930e+02 
7.5842344e+00 6.4148889e+01 -7.0453355e-01 
1.8201212e+01 1.3039586e+02 -2.4351841e+00 
-9.7981702e+00 4.1579245e+01 5.7827700e-01 
-2.3297164e+01 7.8867107e+01 1.9483616e+00 
2.5992183e+01 1.3028152e+02 -2.8367265e+00 
4.7942492e+02 -8.4142109e+00 7.7989398e+02 
-3.2538747e+01 7.5072025e+01 2.3593833e+00 
3.5043190e+01 1.2794575e+02 -3.2992823e+00 
-4.3944238e+01 7.2704386e+01 2.9023041e+00 
4.4221579e+01 1.2439357e+02 -3.7628158e+00 
-5.7180353e+01 7.0274072e+01 3.5513861e+00 
5.2508942e+01 1.1978421e+02 -4.1624734e+00 
3.4226482e+02 -7.0804890e+00 8.5685985e+02 
-7.1472676e+01 6.6626833e+01 4.2602150e+00 
5.8423158e+01 1.1399553e+02 -4.4030503e+00 
-8.5971847e+01 6.0666892e+01 4.9784118e+00 
2.1950172e+02 -5.4770020e+00 8.6133735e+02 
6.1344322e+01 1.0635583e+02 -4.4288494e+00 
-9.7280384e+01 5.1022198e+01 5.5069878e+00 
5.5106830e+01 9.6281704e+01 -3.8490360e+00 
-1.0006314e+02 3.7574305e+01 5.5450720e+00 
1.2134433e+02 -3.8070147e+00 8.1650220e+02 
2.4528343e+01 8.2515904e+01 -1.7351657e+00 
-9.1380617e+01 3.4348831e+01 5.1476097e+00 
-2.6507305e+00 2.3305556e+01 -4.8624976e+02 
-1.5485821e+01 2.2576684e+01 3.8668138e+02 
5.6616532e+01 -1.3858676e+01 -1.0213345e+03 
1.8509399e+02 -1.4321632e+01 -1.0397976e+03 
3.2727164e+02 -1.1374723e+01 -9.8640250e+02 
4.7542374e+02 -7.4353516e+00 -8.6059375e+02 
6.2908368e+02 -1.7538330e+00 -6.5427235e+02 
7.7094655e+02 -1.5170306e+00 -3.5272365e+02 
8.5143023e+02 -5.3185079e+00 4.8837359e+01 
8.2548229e+02 -1.1774880e+01 4.6902617e+02 
6.9447195e+02 -1.6151489e+01 7.8657638e+02 
-1.0835534e+01 4.3735220e+01 7.2159285e-01 
7.9288732e+00 6.3765596e+01 -8.7881728e-01 
-2.4182155e+01 8.4677396e+01 2.0762395e+00 
1.7523410e+01 1.2862968e+02 -2.3866296e+00 
-3.1184910e+01 8.2823859e+01 2.3977949e+00 
5.2602507e+02 -1.4006133e+01 9.6254709e+02 
2.2382213e+01 1.2834782e+02 -2.6307706e+00 
-4.1704591e+01 8.2508829e+01 2.9239054e+00 
2.9026627e+01 1.2640576e+02 -2.9818920e+00 
-5.4939334e+01 8.2635691e+01 3.6119006e+00 
3.5444284e+01 1.2313138e+02 -3.3136169e+00 
-7.0591739e+01 8.2345445e+01 4.4463007e+00 
3.6588311e+02 -1.1968216e+01 1.0192295e+03 
4.0270736e+01 1.1840373e+02 -3.5396098e+00 
-8.7946027e+01 8.0417560e+01 5.3869818e+00 
4.2321792e+01 1.1180219e+02 -3.5820834e+00 
2.2293080e+02 -8.7064821e+00 9.9283376e+02 
-1.0723129e+02 7.5325134e+01 6.4445546e+00 
3.8814261e+01 1.0257623e+02 -3.2546031e+00 
-1.2000950e+02 6.2841365e+01 7.1292999e+00 
3.1489382e+01 8.9864765e+01 -2.6574257e+00 
1.0694693e+02 -5.5872217e+00 9.1253420e+02 
-1.0724436e+02 4.5375466e+01 6.1274147e+00 
-1.0077149e+01 6.7066682e+01 5.0853394e-02 
-3.2655389e+01 2.4816753e+01 4.2384883e+02 
-9.3839342e+00 1.2960546e+01 -5.4506496e+02 
8.0477025e+01 -2.1790556e+01 -1.1428086e+03 
2.0351018e+02 -2.0612295e+01 -1.1700652e+03 
3.4857559e+02 -1.8185532e+01 -1.1239129e+03 
5.1004193e+02 -1.3428256e+01 -9.9629223e+02 
6.7486706e+02 -7.5219165e+00 -7.7255740e+02 
8.5114468e+02 1.9006650e+00 -4.2714121e+02 
9.9076598e+02 -9.0623548e+00 8.6103149e+01 
9.3045335e+02 -2.8745260e+01 6.3573305e+02 
7.5203285e+02 -2.2333362e+01 1.0028163e+03 
-1.1281562e+01 4.4328519e+01 8.6721219e-01 
-2.3915800e+01 8.7709231e+01 2.1136325e+00 
4.6846523e+00 3.2298120e+01 6.3961913e+01 
8.7284505e+00 6.4113183e+01 -1.4356589e+00 
5.7235369e+02 -2.0396666e+01 1.1649329e+03 
-2.8507166e+01 8.7628009e+01 2.3338429e+00 
1.0245249e+01 6.3948537e+01 -1.7079134e+00 
-3.6962305e+01 8.9198386e+01 2.7869998e+00 
1.2255795e+01 6.3149448e+01 -2.0196279e+00 
-4.8336475e+01 9.2072907e+01 3.4256526e+00 
1.3843051e+01 6.1699114e+01 -2.3447392e+00 
-6.2462315e+01 9.5946588e+01 4.2504318e+00 
4.0470346e+02 -1.8528407e+01 1.1952691e+03 
1.4309664e+01 5.9451382e+01 -2.6725373e+00 
-7.9846992e+01 1.0038332e+02 5.3007163e+00 
1.2376116e+01 5.6225364e+01 -2.9719040e+00 
2.4885724e+02 -1.4953285e+01 1.1395064e+03 
-1.0011484e+02 1.0438242e+02 6.5879608e+00 
7.9510638e+00 5.1165118e+01 -3.2964386e+00 
-1.2916203e+02 1.0579880e+02 8.4020940e+00 
-5.0492411e+00 4.5366431e+01 -3.4483970e+00 
1.0539341e+02 -8.0083352e+00 1.0197883e+03 
-1.3450548e+02 9.9873592e+01 9.6467233e+00 
-3.2658667e+01 2.8390586e+01 -3.1851326e+00 
-6.0237176e+01 4.4855035e+01 4.6314336e+02 
2.7875706e+01 1.1036014e+01 -3.4164427e+02 
5.2976286e+01 -1.0657581e+01 -6.0926582e+02 
1.0556698e+02 -1.3883050e+01 -6.3186682e+02 
1.8140199e+02 -1.5193599e+01 -6.1273806e+02 
2.6824571e+02 -1.4977435e+01 -5.4936408e+02 
3.6192467e+02 -1.2579514e+01 -4.3443864e+02 
4.6174748e+02 -1.0414121e+01 -2.4103827e+02 
4.5912690e+02 -8.3673154e+00 -4.8795546e+02 
4.3746416e+02 -8.5019863e+01 -4.4446150e+02 
-3.5011646e+01 -2.1643594e+02 -9.5085229e+02 
3.5544878e+02 -1.7335784e+01 -1.6277109e+02 
-6.2147294e+01 -2.1398607e+02 -1.6688279e+03 
-3.3449966e+01 -1.5083839e+02 -6.8813693e+02 
-5.4612546e+00 2.2186220e+01 4.8417111e+01 
-1.1873575e+01 4.4309162e+01 1.1542520e+00 
-1.3264473e+01 4.4690178e+01 1.2907638e+00 
2.6988215e+02 9.5783070e+00 -1.1997252e+02 
-6.4927721e+01 3.5479654e+01 -1.5272467e+03 
-1.6170181e+01 4.5898387e+01 1.5185818e+00 
-6.4000495e+01 -1.8744450e+02 -1.8239193e+03 
-2.0352835e+01 4.7941475e+01 1.8337470e+00 
1.8194890e+02 -6.7754092e+01 -2.8530947e+03 
-2.5692413e+01 5.0816725e+01 2.2378709e+00 
1.8709124e+02 2.3143847e+01 -1.1105643e+02 
-7.2443603e+01 2.7023211e+01 -1.5331368e+03 
-8.2419842e+01 -1.2747266e+02 -1.7776443e+03 
-3.2137301e+01 5.4495414e+01 2.7478484e+00 
-1.4479163e+02 -8.8038250e+02 -2.3234762e+03 
-7.1273828e+01 4.8510609e+00 -1.5010158e+03 
1.0737087e+02 2.2737907e+01 -1.2634056e+02 
-7.5113041e+01 -1.0147163e+02 -1.5798009e+03 
-9.9471744e+01 -2.1208465e+03 -2.0907054e+03 
-4.0360277e+01 5.8891256e+01 3.3727787e+00 
-8.5845417e+01 -4.8143792e+02 -1.6618143e+03 
-4.9450407e+01 6.2128644e+01 4.2024106e+00 
-3.2721666e+02 -2.4602789e+03 -1.2514155e+03 
-7.0636401e+01 -1.0021845e+01 -1.4752667e+03 
-7.0339230e+01 -1.2088324e+02 -1.4807379e+03 
2.7407190e+01 5.1077025e+01 -1.8461707e+02 
-7.2976031e+01 -4.0763942e+02 -1.5022535e+03 
-6.1813498e+01 6.8298583e+01 4.5589431e+00 
-3.9857134e+01 -2.5677690e+02 -8.3175365e+02 
-6.9394749e+01 -7.8383159e+01 -1.4502930e+03 
-7.4589841e+01 6.5601721e+01 -1.4564274e+03 
-6.4548236e+01 -2.6337515e+02 -1.3616100e+03 
5.5113973e+00 1.9230034e+01 -1.9587693e+02 
-3.7464438e+01 -3.2724683e+02 -7.1785522e+02 
-6.6513592e+01 -1.3589139e+01 -1.4308007e+03 
-6.0587729e+01 -1.5471654e+02 -1.3272634e+03 
-3.0192743e+01 -1.7832597e+02 -6.4851486e+02 
-3.7587428e+01 7.5962253e+01 -6.8901252e+02 
-5.7914825e+01 -7.5225765e+01 -1.3020093e+03 
-2.7045950e+01 -8.9106521e+01 -6.3094879e+02 
-3.1680103e+01 1.1702686e+01 -6.6587028e+02 
-2.6140030e+01 -4.2396448e+01 -6.2778720e+02 
-2.8248888e+01 -1.6393309e+01 -6.3832545e+02 
-5.5852792e+01 1.8280656e+01 -3.0714755e+02 
VON_MISES_STRESS_TOP_SURFACE 1 3567  float
1.4299645e+03
1.2250548e+03
1.3202562e+03
1.2063999e+03
1.0191819e+03
1.1325541e+03
1.1837422e+03
1.1046820e+03
1.2076676e+03
9.6937238e+02
1.1080326e+03
1.1705374e+03
1.0953479e+03
1.2510250e+03
1.2596173e+03
1.0875575e+03
1.1216078e+03
1.1708313e+03
1.2756924e+03
1.3066625e+03
1.3793035e+03
1.2389084e+03
1.6412465e+03
1.1349756e+03
1.3192805e+03
1.2727434e+03
1.4459976e+03
1.1671732e+03
1.3549580e+03
1.2111545e+03
1.2532041e+03
1.2198239e+03
1.2281263e+03
1.1210840e+03
1.1393531e+03
1.0650033e+03
1.1589578e+03
1.0441565e+03
1.1850061e+03
1.1552146e+03
1.2037935e+03
9.6252380e+02
1.1923472e+03
4.3416727e+02
1.1364724e+03
1.1312478e+03
3.9188248e+02
1.1486532e+03
9.8356335e+02
1.1722537e+03
5.6958746e+02
1.1635309e+03
6.8488031e+02
1.1661892e+03
1.0286394e+03
1.1251638e+03
3.9826459e+02
1.1289961e+03
5.1482202e+02
8.3165210e+02
1.1369100e+03
1.1520193e+03
1.1457467e+03
6.6978107e+02
1.0645831e+03
1.1465302e+03
7.2999597e+02
9.4729156e+02
1.1224369e+03
1.1370299e+03
8.4432379e+02
1.2317219e+03
1.1189584e+03
1.4478232e+03
1.1244099e+03
1.3275007e+03
1.0188717e+03
1.0867762e+03
1.1300800e+03
1.1188207e+03
9.4670984e+02
1.0831106e+03
1.1303270e+03
1.0224511e+03
1.1242509e+03
1.0596636e+03
2.1397104e+03
1.1075538e+03
1.0135602e+03
1.0974031e+03
1.1114835e+03
1.7410789e+03
2.0436991e+03
1.7382273e+03
1.1154854e+03
1.1145345e+03
1.5936588e+03
1.2148865e+03
1.5550162e+03
1.1130480e+03
1.0310660e+03
1.2978878e+03
8.2820441e+02
1.3595741e+03
1.1157961e+03
9.0882990e+02
1.4283799e+03
1.0806711e+03
1.0129785e+03
1.2905337e+03
1.0530458e+03
6.1087787e+02
1.2514958e+03
1.1121057e+03
1.0515295e+03
6.8265106e+02
1.3469877e+03
1.1000111e+03
1.0626022e+03
7.7573120e+02
1.2374934e+03
1.0953983e+03
1.0983304e+03
1.1014207e+03
4.2475537e+02
1.2056409e+03
1.1053094e+03
8.3746259e+02
1.0553569e+03
4.9403915e+02
1.2846798e+03
1.0745902e+03
5.8013110e+02
1.1781139e+03
1.1019978e+03
1.0699575e+03
1.0894850e+03
8.5385553e+02
6.4108936e+02
1.0175849e+03
1.0973923e+03
2.6249670e+02
1.1833668e+03
1.0999995e+03
3.4244031e+02
1.2357351e+03
4.2932828e+02
1.1211832e+03
6.6586023e+02
8.3709143e+02
1.0828164e+03
4.9005008e+02
9.7100195e+02
1.0823029e+03
1.0850718e+03
1.0847827e+03
1.0960751e+03
1.0876381e+03
1.0909102e+03
1.6320937e+02
1.1723851e+03
2.5936264e+02
1.1996217e+03
6.6107092e+02
5.1696094e+02
8.0375708e+02
3.5216971e+02
1.0729042e+03
1.0885291e+03
1.0914863e+03
4.1347229e+02
9.2547900e+02
1.0877617e+03
5.1720636e+02
6.3859918e+02
1.0891681e+03
1.9202611e+02
1.1657426e+03
1.0879087e+03
4.4060867e+02
2.8606082e+02
7.6624860e+02
1.1733303e+03
3.7832321e+02
1.0349172e+03
1.0858126e+03
1.0699862e+03
1.0878511e+03
1.0717808e+03
5.0090710e+02
8.8620068e+02
4.3890668e+02
1.0740447e+03
4.4215735e+02
6.0910809e+02
1.0752389e+03
4.6498929e+02
7.3099048e+02
1.0835298e+03
3.1936053e+02
1.1604486e+03
1.0915824e+03
4.0130511e+02
1.1539552e+03
1.0865487e+03
1.0753995e+03
4.2848611e+02
4.9340997e+02
4.7733984e+02
1.0059446e+03
5.7958093e+02
4.6601120e+02
5.5441528e+02
8.5451593e+02
1.0820142e+03
1.0748807e+03
1.4443013e+03
1.0570190e+03
1.2129374e+03
1.3292227e+03
5.7881329e+02
7.0098340e+02
1.0585083e+03
4.0838211e+02
1.1861620e+03
9.6187848e+02
1.0907091e+03
4.6631396e+02
1.1549919e+03
4.5277844e+02
4.5293478e+02
1.0606088e+03
1.1389270e+03
1.0303962e+03
1.1120825e+03
5.5485468e+02
1.0905964e+03
9.8394672e+02
1.0682559e+03
6.6075726e+02
8.5850702e+02
1.0184270e+03
1.0742826e+03
1.0620828e+03
9.2636072e+02
1.0563816e+03
5.7727002e+02
5.5347687e+02
1.0822487e+03
1.0046979e+03
1.0807576e+03
7.2572821e+02
8.2978906e+02
7.9232935e+02
1.0025701e+03
1.0629658e+03
3.8777588e+02
8.5983582e+02
1.0422777e+03
4.3410245e+02
1.0657693e+03
9.5929260e+02
1.0861361e+03
7.4600586e+02
6.7683472e+02
5.6204565e+02
4.3120285e+02
1.0743976e+03
7.3773212e+02
1.0085164e+03
6.1090613e+02
1.1487379e+03
1.0497324e+03
1.1040696e+03
1.0635260e+03
1.1264076e+03
8.1187244e+02
1.0447998e+03
7.2849396e+02
9.6685272e+02
1.0439911e+03
9.3657275e+02
1.0929958e+03
8.6427405e+02
7.3815173e+02
5.3207697e+02
1.0870177e+03
1.0452883e+03
1.1134879e+03
4.1553705e+02
1.0473198e+03
8.1065051e+02
3.6984625e+02
1.0503434e+03
1.1247592e+03
9.3010571e+02
5.4233350e+02
6.8333136e+02
1.0220570e+03
1.0642045e+03
7.7731305e+02
1.0527645e+03
1.0759393e+03
1.0490496e+03
9.3931329e+02
1.0980834e+03
4.1351184e+02
7.1779706e+02
6.5796088e+02
1.1299829e+03
1.1488558e+03
9.3836139e+02
1.0752328e+03
1.1336559e+03
1.0505096e+03
7.4602417e+02
1.1414773e+03
6.1924969e+02
1.0363781e+03
9.3185193e+02
5.2341534e+02
3.9983380e+02
1.1151862e+03
1.0655913e+03
5.1532361e+02
7.5979211e+02
1.1729661e+03
1.0612262e+03
9.1900366e+02
1.1606495e+03
1.1625371e+03
1.1023838e+03
9.5300110e+02
3.5577554e+02
9.7880597e+02
1.1003401e+03
6.9474951e+02
1.0519069e+03
1.0814592e+03
1.1491871e+03
7.9563287e+02
1.1287205e+03
1.1340564e+03
1.0309565e+03
3.9998709e+02
1.2009531e+03
1.1880760e+03
8.9137360e+02
1.0321429e+03
1.0341699e+03
5.3741669e+02
1.0480933e+03
1.1338152e+03
6.4332941e+02
1.0682019e+03
1.0535729e+03
7.8316028e+02
1.2037570e+03
1.1623951e+03
1.0675583e+03
5.0758423e+02
1.0682463e+03
1.0996592e+03
6.7367712e+02
3.8785410e+02
1.0361334e+03
1.2110671e+03
8.8993005e+02
1.1332164e+03
1.2018600e+03
1.1290040e+03
1.1007729e+03
5.0254611e+02
3.4557257e+02
1.2295015e+03
1.1859088e+03
1.1926876e+03
8.6431421e+02
1.1045295e+03
1.0380629e+03
1.3534521e+03
9.4118066e+02
1.0559553e+03
1.2448848e+03
1.1542260e+03
4.7772192e+02
1.0559304e+03
1.0743807e+03
8.9457275e+02
1.0708478e+03
1.3506802e+03
7.8348462e+02
1.0670686e+03
3.9011093e+02
1.0401202e+03
1.1888403e+03
1.2288228e+03
1.2042592e+03
1.0963320e+03
6.5621808e+02
4.9537277e+02
3.7941626e+02
1.2481733e+03
1.1745927e+03
1.3121508e+03
8.4101367e+02
6.3186890e+02
1.2575071e+03
1.1206547e+03
1.0179527e+03
1.0594165e+03
1.0190847e+03
1.0425582e+03
3.3868253e+02
1.2605044e+03
1.1419846e+03
1.0379491e+03
1.0211490e+03
1.2155454e+03
1.2729423e+03
4.9288739e+02
7.1962183e+02
1.0597161e+03
1.2354304e+03
1.1892786e+03
1.1240568e+03
1.1944349e+03
1.0709954e+03
1.0940239e+03
1.0233254e+03
1.3601143e+03
1.0908284e+03
6.4245404e+02
9.3057123e+02
4.8642862e+02
1.2459365e+03
1.1591084e+03
8.2198755e+02
1.0457188e+03
1.3500317e+03
1.1104272e+03
1.2402058e+03
3.8314008e+02
1.0256407e+03
7.7324689e+02
1.0661324e+03
1.0140809e+03
3.7388202e+02
1.2170414e+03
1.1971893e+03
6.2266089e+02
1.3172662e+03
1.1279879e+03
1.2277444e+03
1.1711444e+03
1.0282238e+03
1.0598304e+03
1.0683148e+03
3.3436194e+02
1.2138561e+03
1.0498451e+03
1.0836042e+03
6.3181201e+02
4.8553302e+02
1.2879316e+03
1.1422416e+03
8.0669403e+02
1.0050034e+03
1.1973746e+03
1.1141329e+03
9.9463031e+02
4.8006305e+02
1.0312679e+03
1.0061180e+03
1.0991796e+03
1.2097468e+03
1.1774977e+03
1.0834548e+03
1.0082446e+03
9.2064423e+02
1.2645447e+03
1.1523932e+03
3.7833234e+02
1.1134753e+03
1.1922163e+03
3.7050284e+02
1.0106129e+03
7.6423578e+02
1.0569833e+03
1.0350350e+03
1.0568662e+03
1.0132475e+03
1.1926024e+03
1.1781005e+03
6.1499219e+02
1.0632654e+03
1.1253577e+03
7.9429718e+02
1.0750504e+03
9.7849780e+02
6.2353711e+02
1.2453185e+03
1.1581412e+03
3.3189209e+02
1.0162513e+03
1.0873933e+03
1.1737531e+03
4.7554813e+02
4.7980829e+02
1.1341616e+03
1.0396761e+03
1.1035814e+03
1.0990303e+03
1.0727267e+03
1.1761967e+03
1.1597406e+03
9.1107385e+02
1.2284152e+03
3.6859671e+02
1.0197727e+03
9.9212195e+02
3.7505420e+02
9.9324207e+02
9.9544281e+02
9.6471625e+02
7.5598700e+02
1.0514434e+03
1.1090248e+03
7.8398676e+02
1.1397275e+03
1.0563193e+03
1.0654781e+03
1.1573751e+03
6.1691608e+02
9.9798206e+02
1.0471411e+03
6.0834479e+02
1.0240122e+03
3.3067328e+02
1.0753212e+03
1.1168395e+03
1.0008814e+03
1.2126981e+03
1.1603322e+03
4.7225363e+02
1.1423590e+03
4.7519775e+02
1.0848732e+03
1.0042234e+03
9.5253918e+02
1.0290497e+03
3.6761899e+02
1.0925266e+03
1.1223737e+03
1.1423733e+03
1.0933962e+03
7.7509131e+02
1.0618099e+03
3.7281314e+02
1.0441198e+03
9.0166797e+02
1.0478992e+03
1.1975817e+03
1.0551290e+03
6.1136548e+02
1.0081213e+03
1.1448800e+03
7.4819727e+02
9.7931323e+02
1.1004630e+03
9.8045190e+02
1.0630875e+03
9.8272980e+02
1.1258590e+03
3.3025031e+02
6.0235901e+02
1.0367671e+03
4.6969284e+02
1.0710444e+03
9.8541937e+02
1.0127289e+03
9.4142365e+02
1.1282985e+03
1.1059912e+03
4.7132938e+02
9.8853833e+02
7.6709998e+02
1.1828077e+03
1.0784353e+03
3.6717261e+02
1.0353596e+03
1.1297811e+03
1.0383564e+03
1.0810751e+03
9.9215277e+02
1.0441881e+03
6.0644965e+02
3.7125000e+02
1.0180720e+03
1.0507097e+03
1.0849226e+03
8.9231927e+02
1.1101084e+03
1.0507506e+03
7.4067523e+02
9.9634888e+02
4.6752075e+02
1.0575073e+03
3.3030109e+02
1.1148638e+03
9.3098846e+02
1.1682830e+03
5.9679395e+02
9.6657660e+02
1.0904277e+03
1.0259865e+03
9.6774030e+02
9.7009253e+02
1.1150140e+03
1.0640348e+03
7.5964758e+02
1.0012446e+03
4.6794525e+02
9.7291254e+02
1.0255306e+03
1.0279713e+03
3.6698907e+02
6.0186633e+02
1.0949818e+03
1.0327979e+03
1.0700677e+03
9.7621368e+02
3.7011536e+02
1.0383383e+03
1.0693152e+03
1.0394475e+03
1.0068244e+03
8.8297205e+02
1.1539828e+03
1.1018811e+03
9.8004852e+02
1.0442028e+03
9.2097388e+02
7.3330383e+02
4.6551086e+02
1.0755284e+03
3.3061057e+02
1.1005719e+03
5.9149274e+02
7.5248718e+02
1.0500771e+03
9.8448212e+02
1.0148958e+03
9.5390790e+02
9.5509863e+02
1.0149164e+03
1.0803734e+03
4.6487219e+02
1.0169619e+03
9.5751910e+02
3.6689960e+02
1.0557539e+03
1.0210684e+03
5.9742029e+02
9.8960504e+02
1.1399033e+03
9.6045117e+02
1.0258666e+03
1.0892229e+03
3.6924246e+02
9.6390350e+02
9.1120782e+02
1.0573186e+03
1.0611583e+03
1.0310736e+03
1.0280505e+03
1.0864473e+03
8.7360114e+02
4.6352621e+02
9.9537030e+02
9.6791760e+02
7.2601392e+02
3.3104279e+02
1.0364586e+03
7.4546106e+02
1.0661968e+03
5.8635559e+02
9.7254169e+02
1.0037307e+03
1.1260403e+03
1.0418595e+03
1.0054950e+03
1.0035701e+03
1.0090862e+03
5.9299500e+02
3.6680664e+02
1.0768000e+03
4.6199683e+02
9.4130060e+02
1.0133481e+03
9.4251807e+02
9.7784570e+02
1.0726265e+03
9.0158002e+02
9.4499921e+02
1.0472084e+03
3.6852359e+02
1.0180750e+03
9.4802679e+02
1.0451425e+03
4.6149268e+02
1.0165462e+03
9.5160492e+02
1.0230975e+03
7.3847491e+02
8.6419861e+02
9.8375885e+02
3.3151642e+02
1.0523811e+03
7.1876654e+02
1.1123824e+03
9.5576569e+02
1.0282897e+03
9.9213367e+02
5.8132056e+02
9.9369714e+02
1.0645487e+03
9.9691943e+02
5.8852820e+02
3.6665997e+02
9.9206763e+02
9.6054437e+02
1.0007957e+03
1.0590880e+03
4.5924637e+02
8.9202240e+02
1.0335930e+03
1.0051747e+03
9.2874744e+02
9.2998999e+02
3.6789102e+02
9.6599493e+02
9.3252393e+02
4.5937692e+02
7.3147729e+02
1.0099327e+03
1.0328317e+03
1.0388677e+03
1.0049595e+03
1.0989113e+03
9.3563269e+02
8.5476544e+02
3.3198608e+02
9.3931586e+02
1.0149725e+03
7.1154071e+02
9.7202832e+02
1.0524224e+03
9.8024457e+02
9.8166406e+02
5.8399255e+02
9.8462170e+02
5.7634979e+02
9.4359784e+02
1.0458051e+03
8.8249475e+02
9.8822174e+02
3.6643900e+02
1.0202463e+03
4.5657495e+02
9.8043323e+02
9.9235162e+02
9.4850360e+02
3.6730341e+02
1.0856035e+03
1.0256077e+03
9.9692096e+02
7.2444397e+02
4.5717032e+02
9.1624078e+02
9.5407507e+02
9.1750629e+02
1.0204213e+03
9.2008563e+02
1.0403864e+03
9.9331207e+02
1.0018549e+03
3.3242877e+02
8.4530688e+02
9.2326343e+02
9.6815167e+02
1.0327468e+03
7.0432642e+02
9.6946790e+02
9.6020886e+02
9.2703503e+02
9.7223541e+02
5.7938171e+02
8.7297467e+02
1.0071169e+03
5.7142108e+02
9.7563885e+02
3.6614020e+02
9.3141846e+02
9.7959283e+02
4.5395419e+02
9.6870172e+02
1.0724338e+03
1.0125594e+03
9.3643048e+02
9.8403149e+02
7.1736707e+02
3.6673630e+02
4.5487796e+02
1.0284155e+03
9.8889758e+02
9.4210388e+02
1.0079388e+03
9.0377338e+02
9.8162189e+02
1.0198823e+03
9.0505963e+02
3.3283469e+02
9.5592072e+02
8.3582990e+02
9.0767804e+02
9.5716266e+02
9.5979364e+02
5.7470068e+02
6.9711969e+02
8.6345093e+02
9.1091479e+02
9.9416479e+02
9.6305829e+02
9.4832410e+02
9.1476172e+02
5.6652148e+02
3.6576895e+02
9.6689062e+02
1.0593774e+03
9.9968774e+02
9.1923138e+02
4.5136685e+02
9.7124274e+02
7.1024756e+02
9.5690015e+02
4.5251132e+02
1.0164909e+03
3.6617566e+02
9.2433417e+02
9.7607117e+02
1.0071813e+03
9.4360028e+02
3.3320151e+02
9.9540509e+02
9.3009570e+02
9.4478894e+02
9.6990350e+02
8.5391852e+02
9.8135858e+02
8.9133850e+02
5.6995972e+02
8.2634143e+02
9.4732184e+02
8.9264349e+02
8.9529565e+02
9.5048969e+02
6.8992010e+02
1.0464114e+03
8.9858350e+02
3.6533450e+02
9.3639258e+02
9.5424042e+02
5.6164410e+02
9.8696246e+02
9.0249548e+02
9.5853925e+02
7.0309106e+02
4.4880270e+02
1.0045987e+03
9.0703998e+02
4.5008398e+02
9.4504956e+02
3.6561398e+02
9.9461615e+02
9.6335333e+02
9.1222211e+02
9.3122632e+02
9.3237677e+02
8.4437646e+02
3.3353064e+02
9.6867297e+02
9.8283667e+02
9.3483929e+02
5.6517084e+02
9.5816870e+02
9.1806195e+02
1.0335157e+03
8.1684808e+02
9.3794086e+02
8.7893011e+02
6.8272888e+02
8.8025226e+02
9.4163922e+02
8.8293396e+02
9.7435828e+02
3.6484714e+02
5.5678552e+02
9.2442889e+02
8.8626678e+02
9.4590936e+02
6.9590479e+02
9.9272882e+02
8.9023627e+02
4.4625598e+02
9.8216260e+02
4.4760934e+02
9.5072668e+02
8.9484705e+02
9.3316638e+02
3.6504758e+02
8.3482538e+02
9.0010028e+02
9.1882501e+02
9.5608746e+02
9.1994806e+02
5.6034576e+02
1.0206736e+03
3.3382526e+02
9.2236029e+02
9.7024597e+02
9.2541742e+02
9.4642670e+02
8.0735565e+02
9.0601172e+02
9.6185376e+02
9.2908466e+02
6.7554816e+02
3.6431662e+02
8.6654285e+02
8.6788086e+02
8.7058917e+02
9.8087433e+02
5.5194452e+02
9.3334418e+02
6.8869598e+02
9.1244458e+02
8.7396252e+02
9.6979968e+02
4.4372375e+02
8.7798389e+02
9.3817743e+02
4.4509930e+02
3.6447498e+02
9.2126324e+02
8.8265509e+02
8.2526715e+02
9.4358533e+02
1.0078717e+03
9.0641553e+02
9.0751880e+02
9.0989478e+02
5.5549487e+02
8.8797369e+02
3.3408908e+02
9.1292316e+02
9.5764276e+02
9.4943115e+02
9.3468494e+02
9.1657440e+02
7.9786920e+02
8.9395227e+02
3.6375143e+02
6.6838043e+02
9.6903033e+02
9.2083606e+02
6.8147156e+02
5.4712122e+02
8.5417188e+02
8.5552502e+02
9.5751001e+02
8.5825787e+02
9.0044879e+02
9.2569409e+02
4.4120474e+02
8.6166876e+02
4.4256400e+02
8.6573828e+02
8.1570386e+02
3.6389615e+02
9.9509943e+02
9.3115283e+02
9.0935028e+02
8.9401129e+02
8.7046588e+02
8.9510010e+02
8.9744971e+02
5.5062701e+02
3.3432571e+02
9.0046021e+02
8.7584637e+02
9.3707574e+02
9.4503448e+02
9.0410602e+02
9.2294928e+02
7.8839313e+02
9.5719391e+02
3.6315878e+02
8.8188953e+02
6.6122833e+02
9.0837866e+02
6.7423730e+02
9.4527930e+02
5.4231647e+02
8.4181311e+02
9.1326721e+02
8.4318097e+02
8.8844867e+02
8.4593738e+02
4.4001172e+02
4.3869888e+02
8.4938403e+02
9.8234888e+02
8.0613782e+02
9.1877856e+02
3.6331171e+02
8.5349951e+02
8.8162170e+02
8.9743530e+02
8.8269940e+02
8.8502930e+02
5.4574957e+02
8.5828113e+02
9.2477545e+02
8.8802930e+02
3.3453857e+02
8.9167682e+02
8.6372137e+02
9.4536322e+02
9.3242706e+02
9.1122443e+02
7.7893109e+02
3.6254446e+02
6.6699829e+02
8.9596625e+02
9.3309613e+02
6.5409454e+02
8.6982800e+02
9.0088879e+02
5.3753168e+02
4.3744910e+02
8.2946277e+02
4.3620673e+02
9.6961432e+02
8.7644989e+02
8.3084540e+02
7.9657117e+02
8.3362518e+02
9.0645306e+02
8.3710687e+02
3.6272272e+02
8.6925293e+02
8.7032147e+02
8.4126727e+02
5.4086835e+02
8.7263586e+02
8.8552454e+02
9.1252057e+02
8.7563025e+02
3.3473056e+02
8.4610193e+02
8.7928406e+02
9.3353754e+02
8.5160138e+02
9.1982513e+02
9.2095154e+02
8.8359369e+02
6.5975873e+02
8.9951428e+02
3.6191321e+02
7.6948645e+02
6.4698151e+02
8.8855206e+02
8.5777142e+02
5.3276843e+02
9.5689172e+02
4.3488135e+02
7.8700610e+02
8.9416864e+02
4.3372931e+02
8.6445709e+02
8.1711768e+02
8.1851544e+02
8.2131909e+02
8.5690869e+02
8.5796906e+02
3.6213049e+02
8.2483612e+02
5.3598816e+02
8.6027032e+02
9.0030310e+02
8.6326184e+02
8.2904156e+02
8.7362299e+02
9.2171680e+02
3.3490430e+02
8.6692456e+02
8.3392938e+02
9.0883862e+02
8.7125641e+02
6.5252209e+02
9.0723236e+02
3.6126868e+02
8.3948834e+02
8.8782208e+02
7.6006226e+02
8.7625116e+02
6.3989172e+02
9.4417822e+02
8.4572284e+02
5.2802869e+02
4.3231259e+02
7.7744458e+02
8.8191876e+02
4.3126794e+02
8.5247394e+02
8.0477478e+02
8.4459106e+02
8.0618848e+02
8.4564337e+02
3.6153644e+02
8.8811688e+02
8.0901721e+02
8.4793250e+02
5.3111273e+02
8.1257062e+02
8.5092255e+02
9.0990131e+02
8.6173462e+02
8.1682208e+02
3.3506192e+02
8.5459552e+02
8.9675195e+02
8.2176410e+02
8.5895026e+02
6.4529126e+02
3.6061383e+02
8.9465179e+02
8.7615070e+02
8.2738391e+02
7.5066107e+02
8.6398108e+02
9.3147223e+02
6.3282776e+02
5.2331445e+02
7.6788831e+02
4.2974603e+02
8.3368463e+02
8.6969824e+02
4.2882413e+02
8.3230066e+02
8.4050342e+02
8.3334454e+02
8.7595685e+02
5.2624506e+02
8.3562158e+02
3.6094193e+02
7.9243152e+02
7.9386218e+02
8.3861047e+02
7.9671783e+02
8.9809180e+02
8.0030933e+02
8.4229395e+02
8.4986292e+02
3.3520541e+02
8.8468756e+02
8.0460858e+02
8.4667151e+02
6.3806860e+02
8.0960669e+02
3.5995102e+02
8.8208606e+02
8.5173773e+02
9.1877264e+02
8.6450256e+02
7.4128552e+02
8.1528943e+02
6.2579187e+02
7.5833899e+02
8.5750275e+02
4.2718414e+02
5.1862762e+02
8.2165875e+02
4.2639941e+02
8.6381903e+02
8.2003748e+02
8.2107196e+02
8.2333612e+02
5.2138757e+02
8.2854797e+02
3.6034839e+02
8.8628906e+02
8.2632349e+02
7.8008533e+02
7.8153436e+02
7.8441925e+02
8.3001709e+02
8.7264246e+02
3.3533643e+02
7.8805133e+02
8.3801056e+02
6.3085620e+02
8.3441687e+02
7.9240082e+02
9.0607904e+02
3.5928204e+02
7.9745764e+02
8.3951740e+02
8.6953735e+02
8.5288007e+02
7.3193799e+02
8.0320605e+02
7.4879810e+02
6.1878662e+02
8.4532867e+02
4.2462894e+02
5.1397046e+02
8.0964697e+02
8.5170038e+02
4.2399548e+02
8.0780072e+02
8.0882458e+02
8.1107465e+02
5.1654224e+02
8.7449414e+02
8.1660992e+02
8.1405945e+02
3.5975723e+02
8.6061438e+02
8.1776233e+02
7.6773395e+02
7.6920300e+02
7.7212006e+02
3.3545639e+02
6.2365570e+02
8.2618005e+02
8.2218341e+02
7.7579565e+02
8.9339124e+02
7.8019855e+02
8.2731714e+02
3.5860849e+02
7.8531726e+02
8.5700763e+02
8.4128540e+02
7.3926703e+02
7.2262091e+02
8.3317328e+02
6.1181421e+02
7.9113477e+02
4.2208200e+02
5.0934503e+02
8.3959851e+02
7.9765082e+02
7.9558929e+02
4.2161404e+02
7.9660114e+02
5.1171066e+02
7.9883545e+02
8.6270795e+02
8.0181628e+02
3.5916983e+02
8.0469098e+02
8.4860181e+02
8.0552734e+02
7.5537512e+02
3.3556662e+02
7.5686627e+02
8.0996857e+02
6.1646857e+02
7.5981879e+02
8.1437360e+02
8.8070941e+02
7.6354156e+02
8.1513440e+02
3.5793152e+02
7.6800146e+02
8.4449884e+02
7.7318591e+02
7.2974695e+02
8.2972070e+02
8.2103406e+02
7.1333667e+02
4.1954456e+02
6.0487726e+02
7.7907642e+02
8.2751154e+02
5.0475354e+02
7.8340198e+02
7.8440015e+02
7.8567163e+02
8.5093140e+02
4.1925674e+02
7.8661676e+02
5.0689417e+02
7.8959210e+02
8.3660345e+02
3.5858743e+02
7.9330988e+02
7.9279309e+02
7.9777014e+02
6.0929614e+02
3.3566824e+02
8.6803369e+02
7.4300677e+02
7.4452234e+02
8.0259338e+02
7.4751422e+02
8.0296692e+02
7.5128821e+02
3.5725214e+02
7.5580945e+02
7.2023889e+02
8.0890924e+02
8.3201270e+02
8.1818823e+02
7.6106390e+02
7.0408759e+02
4.1701764e+02
5.9797809e+02
8.1543787e+02
7.6703180e+02
5.0019824e+02
7.7123749e+02
8.3916547e+02
7.7222021e+02
7.7441699e+02
5.0209390e+02
4.1692535e+02
7.7371063e+02
8.2461859e+02
7.7738513e+02
3.5801135e+02
7.8110815e+02
7.8091785e+02
7.8558624e+02
6.0213940e+02
8.5536438e+02
3.3576230e+02
7.3062683e+02
7.9081293e+02
7.3216943e+02
7.9084131e+02
7.3520502e+02
3.5657117e+02
7.3903491e+02
7.1074390e+02
7.9679712e+02
7.4362219e+02
8.1955115e+02
8.0669019e+02
7.4895160e+02
4.1450204e+02
6.9487622e+02
8.0337640e+02
5.9111926e+02
7.5500183e+02
4.9568134e+02
8.2741077e+02
7.5909460e+02
7.6006000e+02
7.6223468e+02
4.9731073e+02
8.1264648e+02
4.1462152e+02
7.6176923e+02
7.6519366e+02
7.6892041e+02
3.5744281e+02
7.6906696e+02
8.4270166e+02
7.7341510e+02
5.9499939e+02
3.3584973e+02
7.7867096e+02
7.7911945e+02
7.1823334e+02
7.1980585e+02
3.5588934e+02
7.2289008e+02
7.0126276e+02
7.8469641e+02
7.2678094e+02
7.3143964e+02
8.0711591e+02
7.9522888e+02
4.1199847e+02
6.8570508e+02
7.9132617e+02
7.3684943e+02
5.8430341e+02
8.1566815e+02
4.9120520e+02
7.4697217e+02
7.4298737e+02
7.4791833e+02
8.0068677e+02
7.5006848e+02
4.9254547e+02
4.1234705e+02
7.5301630e+02
7.4984875e+02
7.5674524e+02
3.5688297e+02
8.3004590e+02
7.6125531e+02
5.8787677e+02
7.5724213e+02
3.3593143e+02
7.6653955e+02
7.6742993e+02
7.0582422e+02
3.5520721e+02
6.9179614e+02
7.0743005e+02
7.7260602e+02
7.1056818e+02
7.1452576e+02
7.1926178e+02
7.7928644e+02
4.0950742e+02
7.9470886e+02
7.8380670e+02
6.7657678e+02
7.2475781e+02
8.0393817e+02
5.7753320e+02
7.3486932e+02
7.3579413e+02
4.8677216e+02
7.8873907e+02
4.8779880e+02
7.3791724e+02
7.3098938e+02
7.4085187e+02
4.1010364e+02
7.4458136e+02
7.3795056e+02
3.5633298e+02
8.1739728e+02
7.4910571e+02
5.8077234e+02
7.4544513e+02
3.3600812e+02
7.5441766e+02
6.8234467e+02
7.6052509e+02
3.5452524e+02
7.5577478e+02
6.9339752e+02
6.9504022e+02
6.9823822e+02
7.0226886e+02
7.6725653e+02
4.0702933e+02
7.8233209e+02
7.7242633e+02
7.0708850e+02
6.6749420e+02
7.9222131e+02
5.7081140e+02
7.1267737e+02
7.2278528e+02
7.7680304e+02
7.2368671e+02
4.8238464e+02
7.2578015e+02
4.8307123e+02
7.1900903e+02
7.2869934e+02
4.0789307e+02
7.3242767e+02
8.0475592e+02
7.2607617e+02
3.5579401e+02
7.3696521e+02
5.7368658e+02
3.3608060e+02
7.4230432e+02
7.3367792e+02
6.7290887e+02
7.4845276e+02
3.5384387e+02
7.4415643e+02
6.8095123e+02
6.8263483e+02
6.8589923e+02
7.5523584e+02
6.9000964e+02
4.0456454e+02
7.6998761e+02
7.8051801e+02
7.6109052e+02
6.9492004e+02
6.5846027e+02
5.6414105e+02
7.6487842e+02
7.1071973e+02
7.1159546e+02
7.0060870e+02
7.1365637e+02
4.7836322e+02
4.7804526e+02
7.1655786e+02
7.0704742e+02
4.0571713e+02
7.2028333e+02
7.9212183e+02
3.5526718e+02
7.1422736e+02
7.2483289e+02
5.6662000e+02
7.3019873e+02
3.3614951e+02
7.2194257e+02
6.6348907e+02
7.3638831e+02
3.5316339e+02
7.3257727e+02
7.4322382e+02
6.6848328e+02
6.7021222e+02
6.7355011e+02
4.0211328e+02
7.6882849e+02
6.7774786e+02
7.5767786e+02
7.4980206e+02
6.4947809e+02
6.8275659e+02
7.5296497e+02
6.9867230e+02
5.5752509e+02
6.9951996e+02
7.0154541e+02
4.7367514e+02
6.8855273e+02
4.7375656e+02
7.0442676e+02
7.7949506e+02
6.9510590e+02
7.0814752e+02
4.0357767e+02
5.5957306e+02
7.1270795e+02
3.5475360e+02
7.0240594e+02
7.1809998e+02
3.3621558e+02
7.1024133e+02
6.5408563e+02
7.2433099e+02
3.5248413e+02
7.2104004e+02
7.3121997e+02
6.5599158e+02
3.9967572e+02
6.5777075e+02
7.5715302e+02
6.6118994e+02
7.4540515e+02
6.6548309e+02
7.3856427e+02
7.4106238e+02
6.4055109e+02
6.8664313e+02
6.7059851e+02
6.8746021e+02
5.5096692e+02
6.8944696e+02
4.6900723e+02
6.9230560e+02
4.6952130e+02
6.7651038e+02
7.6687555e+02
6.9601971e+02
4.0147656e+02
6.8318616e+02
7.0058972e+02
5.5254590e+02
3.5425446e+02
6.9061395e+02
7.0600751e+02
3.3627942e+02
6.9857678e+02
6.4469879e+02
7.1228027e+02
3.5180627e+02
7.1922375e+02
7.0954761e+02
7.4549170e+02
3.9725195e+02
6.4347394e+02
6.4530878e+02
7.2917029e+02
6.4881769e+02
7.3317230e+02
7.2738049e+02
6.5321527e+02
6.3168274e+02
6.7463251e+02
6.7541620e+02
6.7736090e+02
4.6435968e+02
5.4446985e+02
6.5844629e+02
6.8019397e+02
7.5426306e+02
4.6534238e+02
6.6448279e+02
6.8389935e+02
3.9941577e+02
6.7128979e+02
5.4553888e+02
6.8847766e+02
3.5377084e+02
6.9392065e+02
6.7885376e+02
3.3634167e+02
6.3532855e+02
7.0023553e+02
6.8695160e+02
3.5113004e+02
7.0723468e+02
6.9810327e+02
7.3384454e+02
3.9484204e+02
7.1728827e+02
6.3092828e+02
6.3282458e+02
6.3643256e+02
7.2098212e+02
7.1625439e+02
6.6264105e+02
6.6338843e+02
6.2287695e+02
6.4094409e+02
6.6528729e+02
4.5973260e+02
5.3803766e+02
6.4630060e+02
7.4165741e+02
6.6809174e+02
4.6122275e+02
6.7178601e+02
6.5247137e+02
3.9739731e+02
5.3855206e+02
6.7637109e+02
6.5941901e+02
3.5330399e+02
6.8183875e+02
6.6712787e+02
3.3640295e+02
6.2597498e+02
6.8819604e+02
6.7536884e+02
3.5045560e+02
6.9525208e+02
6.8671039e+02
7.2221143e+02
3.9244592e+02
7.0541595e+02
6.1835229e+02
6.2031653e+02
7.0883795e+02
7.0519000e+02
6.5066962e+02
6.2403363e+02
6.5137750e+02
6.1413782e+02
6.5322638e+02
4.5512604e+02
6.2866974e+02
7.2905817e+02
5.3167419e+02
6.5599878e+02
6.3416223e+02
4.5716562e+02
6.5967938e+02
6.4047772e+02
3.9542331e+02
6.6426965e+02
5.3158539e+02
6.4757593e+02
3.5285510e+02
6.6976117e+02
6.5543927e+02
3.3646390e+02
6.1663800e+02
6.7616119e+02
6.6383197e+02
3.4978302e+02
6.8327533e+02
7.1059222e+02
6.7537299e+02
3.9006354e+02
6.9355273e+02
6.3871924e+02
6.0574371e+02
6.0778284e+02
6.9674323e+02
6.3938409e+02
6.9419171e+02
6.1162024e+02
6.4117865e+02
4.5053995e+02
6.0546979e+02
7.1646497e+02
6.1639233e+02
6.4391522e+02
5.2538361e+02
6.2203229e+02
6.4757935e+02
4.5317432e+02
6.2850372e+02
6.5217279e+02
5.2463898e+02
3.9349597e+02
6.3576324e+02
6.5768732e+02
3.5242551e+02
6.0731738e+02
6.4379114e+02
6.6413025e+02
3.3652518e+02
6.5234467e+02
6.7130371e+02
3.4911252e+02
6.9898657e+02
6.6409521e+02
6.8169800e+02
3.8769473e+02
6.2679138e+02
6.2740948e+02
7.0387714e+02
6.8470190e+02
6.2914459e+02
5.9310004e+02
4.4597418e+02
6.8326410e+02
5.9522192e+02
5.9687762e+02
5.9919159e+02
6.3184125e+02
5.1917029e+02
6.0411206e+02
6.3548560e+02
4.4925238e+02
6.0991193e+02
6.4008008e+02
5.1771259e+02
3.9161768e+02
6.1655145e+02
6.4561658e+02
3.5201645e+02
6.2398395e+02
5.9801294e+02
6.5210248e+02
3.3658743e+02
6.3218713e+02
6.5933649e+02
3.4844409e+02
6.4091119e+02
6.8739417e+02
6.6985107e+02
3.8533932e+02
6.5288184e+02
6.1488776e+02
6.1545483e+02
6.9129419e+02
6.1712512e+02
4.4142859e+02
6.7271820e+02
6.7241241e+02
5.8041882e+02
6.1977716e+02
5.8836646e+02
5.8263196e+02
5.8674707e+02
5.1303900e+02
6.2339813e+02
5.9182953e+02
4.4540353e+02
5.9780280e+02
6.2799109e+02
5.1080594e+02
3.8979080e+02
6.0462347e+02
6.3354828e+02
3.5162946e+02
6.1224133e+02
5.8872424e+02
6.4007703e+02
3.3665143e+02
6.2063135e+02
6.4737268e+02
3.4777795e+02
6.2953613e+02
6.7581445e+02
6.5801105e+02
3.8299716e+02
6.4173804e+02
6.7871521e+02
6.0301031e+02
6.0352179e+02
6.0512115e+02
4.3690292e+02
6.6079681e+02
6.6164221e+02
6.0772345e+02
5.7994196e+02
5.6769757e+02
5.7001129e+02
5.0699487e+02
6.1131689e+02
5.7428625e+02
5.7954547e+02
4.4163181e+02
6.1590546e+02
5.0391885e+02
5.8570673e+02
3.8801804e+02
6.2148163e+02
5.9272278e+02
3.5126596e+02
5.7945081e+02
6.0053931e+02
6.2805298e+02
3.3671790e+02
6.0912848e+02
6.3541132e+02
3.4711414e+02
6.6424683e+02
6.1822479e+02
6.4617700e+02
3.8066794e+02
6.3066956e+02
6.6613940e+02
5.9116138e+02
5.9161212e+02
5.9313379e+02
4.3239685e+02
6.4894312e+02
5.9568054e+02
6.5095966e+02
5.7161017e+02
5.5493372e+02
5.9924188e+02
5.5735822e+02
5.0104330e+02
5.6180872e+02
4.3794138e+02
5.6726080e+02
6.0382269e+02
4.9705084e+02
5.7362598e+02
3.8630212e+02
6.0941589e+02
5.8085254e+02
3.5092761e+02
5.7019202e+02
6.1602936e+02
5.8888214e+02
3.3678769e+02
6.2345129e+02
5.9768359e+02
3.4645285e+02
6.5269055e+02
6.0698291e+02
6.3434778e+02
3.7835141e+02
6.1968280e+02
6.5356580e+02
5.7934351e+02
5.7972797e+02
5.8116449e+02
4.2791000e+02
5.8364923e+02
6.3716278e+02
6.4037146e+02
5.6337756e+02
5.8717322e+02
4.9519012e+02
5.4212469e+02
5.4467114e+02
5.4931445e+02
5.9174237e+02
4.9020142e+02
4.3433679e+02
5.5497681e+02
3.8464597e+02
5.9735022e+02
5.6156305e+02
5.6901678e+02
3.5061618e+02
5.6094720e+02
6.0400500e+02
5.7727478e+02
3.3686172e+02
6.1149127e+02
5.8630255e+02
6.4114471e+02
3.4579425e+02
6.2252216e+02
5.9581702e+02
3.7604736e+02
6.4099316e+02
6.0878485e+02
5.6755963e+02
5.6787164e+02
5.6921478e+02
4.2344199e+02
5.7163025e+02
6.2546228e+02
6.2988495e+02
5.7511090e+02
5.5525140e+02
4.8944165e+02
5.2926782e+02
5.7966400e+02
4.8337003e+02
5.3194855e+02
5.3680341e+02
4.3082285e+02
5.4269519e+02
5.8528369e+02
3.8305280e+02
5.4952124e+02
5.5171545e+02
3.5033353e+02
5.9197864e+02
5.5721991e+02
5.6572290e+02
3.3694107e+02
5.9952985e+02
6.2960834e+02
5.7499194e+02
3.4513864e+02
6.1069873e+02
5.8473431e+02
3.7375546e+02
6.2842023e+02
5.9798352e+02
5.5581305e+02
5.5604578e+02
5.5728638e+02
4.1899231e+02
5.5962451e+02
6.1384888e+02
5.6305524e+02
6.1950818e+02
5.4723944e+02
4.8380466e+02
5.6758722e+02
4.7655603e+02
5.1636066e+02
5.1918921e+02
4.2740472e+02
5.2427612e+02
5.7321539e+02
5.3041803e+02
3.8152594e+02
5.3750415e+02
5.4249591e+02
5.7994904e+02
3.5008173e+02
5.4546704e+02
3.3702682e+02
5.5423279e+02
5.8756549e+02
6.1808020e+02
5.6375909e+02
3.4448630e+02
5.9887592e+02
5.7374304e+02
3.7147556e+02
6.1584558e+02
5.8728760e+02
5.4410742e+02
5.4425336e+02
5.4538123e+02
4.1456052e+02
5.4763312e+02
5.5100635e+02
6.0233044e+02
6.0925012e+02
5.3935004e+02
5.5551141e+02
4.6975867e+02
4.7828647e+02
5.0340079e+02
5.0639194e+02
4.2408789e+02
5.1173340e+02
5.6114417e+02
5.1814807e+02
3.8006909e+02
5.2551624e+02
5.3328741e+02
5.6791455e+02
3.4986304e+02
5.3376410e+02
5.7559637e+02
3.3712033e+02
5.4281177e+02
6.0655890e+02
5.5261237e+02
5.8705182e+02
3.4383768e+02
5.6285217e+02
3.6920740e+02
6.0326752e+02
5.3244666e+02
5.7670685e+02
5.3249762e+02
4.1014609e+02
5.3350159e+02
5.3565729e+02
5.3896466e+02
5.9091602e+02
5.9912048e+02
5.3159247e+02
5.4343616e+02
4.6297714e+02
4.7289493e+02
4.2087839e+02
4.9038614e+02
5.4906891e+02
4.9355612e+02
4.9917657e+02
3.7868622e+02
5.0588855e+02
5.2408868e+02
5.5587366e+02
5.1356256e+02
3.4967996e+02
5.2211786e+02
5.6362061e+02
3.3722305e+02
5.3146802e+02
5.9504297e+02
5.7522449e+02
3.4319339e+02
5.4156116e+02
5.9068433e+02
3.6695090e+02
5.5207202e+02
5.2083527e+02
5.2078223e+02
5.6625214e+02
5.2164996e+02
4.0574850e+02
5.2369836e+02
5.2693054e+02
5.7961560e+02
5.8913013e+02
5.3136102e+02
4.5621054e+02
5.2397687e+02
4.6763864e+02
5.3698840e+02
4.1778256e+02
4.7731497e+02
4.8068152e+02
4.8660773e+02
3.7738156e+02
5.1489850e+02
5.4382446e+02
4.9364371e+02
5.0164932e+02
3.4953531e+02
5.5163593e+02
5.1053625e+02
3.3733676e+02
5.8353064e+02
5.2021088e+02
5.6339166e+02
3.4255408e+02
5.3061603e+02
5.7809393e+02
3.6470599e+02
5.4141394e+02
5.0927792e+02
5.0911105e+02
5.0982910e+02
4.0136728e+02
5.5593561e+02
5.1175806e+02
5.1490454e+02
5.6844031e+02
5.7929095e+02
5.1928558e+02
4.4945795e+02
5.1651422e+02
4.6252692e+02
5.2490143e+02
4.1480743e+02
4.6418616e+02
4.6776871e+02
5.0571521e+02
3.7615991e+02
4.7402966e+02
5.3176508e+02
4.8141861e+02
3.4943219e+02
4.8978366e+02
5.3964008e+02
4.9902829e+02
3.3746338e+02
5.7202002e+02
5.0905106e+02
5.5155078e+02
3.4192072e+02
5.1978888e+02
5.6549408e+02
3.6247275e+02
5.3089093e+02
4.9777985e+02
4.9748843e+02
3.9700192e+02
4.9804202e+02
5.4577075e+02
4.9983810e+02
5.0288730e+02
5.0720938e+02
4.4271829e+02
5.5740283e+02
5.6961621e+02
5.0921671e+02
4.5756985e+02
5.1280658e+02
4.1196057e+02
4.9653720e+02
4.5099933e+02
5.1969348e+02
4.5481906e+02
3.7502649e+02
4.6144635e+02
4.6921954e+02
3.4937411e+02
5.2763037e+02
4.7797403e+02
4.8760440e+02
5.6050879e+02
3.3760526e+02
5.3969910e+02
4.9800061e+02
3.4129440e+02
5.0909329e+02
5.5288245e+02
3.6025137e+02
5.2051733e+02
4.8634665e+02
4.8591904e+02
3.9265195e+02
4.8629208e+02
5.3577283e+02
4.8794067e+02
4.9087973e+02
4.9513220e+02
4.3599051e+02
5.4651733e+02
5.6012061e+02
5.0209769e+02
4.5277866e+02
5.0070264e+02
4.0925040e+02
4.8736261e+02
5.0760745e+02
4.3775531e+02
3.7398706e+02
4.4183530e+02
4.4886307e+02
4.5705429e+02
3.4936511e+02
5.1560413e+02
4.6623044e+02
5.4899451e+02
3.3776505e+02
4.7627655e+02
5.2783350e+02
4.8707339e+02
3.4067657e+02
5.4025616e+02
4.9854449e+02
3.5804218e+02
5.1030951e+02
4.7498416e+02
4.7440778e+02
4.7458295e+02
3.8831693e+02
4.7606808e+02
5.2595886e+02
4.7888297e+02
4.8305396e+02
4.2927341e+02
5.3579974e+02
5.5082050e+02
4.9517200e+02
4.8858835e+02
4.4816556e+02
4.0668613e+02
4.7818936e+02
4.9550476e+02
3.7304825e+02
4.2445648e+02
4.2882172e+02
4.3628680e+02
5.0355829e+02
3.4940976e+02
4.4493225e+02
4.5456464e+02
5.3747455e+02
3.3794586e+02
4.6505862e+02
5.1595074e+02
4.7628503e+02
3.4006888e+02
5.2761249e+02
4.8815970e+02
3.5584558e+02
5.0028580e+02
4.6369858e+02
4.6295999e+02
4.6291864e+02
3.8399643e+02
4.6422311e+02
5.1634796e+02
4.6689841e+02
4.7097470e+02
4.2256570e+02
5.2526825e+02
5.4173425e+02
4.8845615e+02
4.7646249e+02
4.4374420e+02
4.0427817e+02
4.6901517e+02
4.8338309e+02
3.7221750e+02
4.1110727e+02
4.1578473e+02
4.9148965e+02
4.2372659e+02
3.4951346e+02
4.3286493e+02
5.2594568e+02
4.4299036e+02
3.3815137e+02
5.0404706e+02
4.5396649e+02
3.3947333e+02
4.6565335e+02
5.1494812e+02
4.7795834e+02
3.5366226e+02
4.9046686e+02
4.5249625e+02
4.5158118e+02
3.7968997e+02
4.5130347e+02
4.5240881e+02
5.0696179e+02
4.5492783e+02
4.5889490e+02
4.1586591e+02
5.1494342e+02
5.3288251e+02
4.6432413e+02
4.8196851e+02
4.3952988e+02
4.5983752e+02
4.7124017e+02
4.0203827e+02
3.7150345e+02
4.7939493e+02
3.9771481e+02
4.0273340e+02
4.1119409e+02
3.4968243e+02
5.1440448e+02
4.2086636e+02
4.3152383e+02
4.9211850e+02
3.3838586e+02
4.4301843e+02
3.3889233e+02
4.5519861e+02
5.0225964e+02
4.6796246e+02
3.5149286e+02
4.8087595e+02
4.4138361e+02
4.4027689e+02
3.7539703e+02
4.3974200e+02
4.4062863e+02
4.4297342e+02
4.9782449e+02
4.4681531e+02
4.0917236e+02
5.0484848e+02
4.5217258e+02
5.2428839e+02
4.7572989e+02
4.3553986e+02
4.5065350e+02
4.5907382e+02
3.9997995e+02
3.7091620e+02
4.6727066e+02
3.8428976e+02
3.8968021e+02
3.4992416e+02
3.9870407e+02
5.0284714e+02
4.0895346e+02
4.8016080e+02
4.2018402e+02
3.3865451e+02
4.3223541e+02
3.3832867e+02
4.8954340e+02
4.4494373e+02
3.4933813e+02
4.5819678e+02
4.3036685e+02
4.2905280e+02
4.7153940e+02
4.2823901e+02
3.7111682e+02
4.2888647e+02
4.3103799e+02
4.8896353e+02
4.3473730e+02
4.0248303e+02
4.4000754e+02
4.9501016e+02
5.1597827e+02
4.6976379e+02
4.3179388e+02
4.4145978e+02
4.4688211e+02
3.9811884e+02
3.7046777e+02
4.5511334e+02
3.7084723e+02
4.9126917e+02
3.5024753e+02
3.7664188e+02
3.8627518e+02
4.6816931e+02
3.9714661e+02
3.3896332e+02
4.0899301e+02
4.2164142e+02
4.7679544e+02
3.3778558e+02
4.3491470e+02
3.4719885e+02
4.4868930e+02
4.1945172e+02
4.1791422e+02
4.6248682e+02
3.6684824e+02
4.1679941e+02
4.1718655e+02
4.1912479e+02
4.8040991e+02
4.2266287e+02
3.9579535e+02
4.2782935e+02
4.8545889e+02
5.0798199e+02
4.6409717e+02
4.3225241e+02
4.2831488e+02
4.3466336e+02
3.9647351e+02
4.4291956e+02
3.7017261e+02
4.7966559e+02
3.5066339e+02
3.5740793e+02
3.6364035e+02
3.7393066e+02
4.5613925e+02
3.8547021e+02
3.3931961e+02
3.9797659e+02
4.6401163e+02
4.1126385e+02
3.3726666e+02
4.2514081e+02
3.4507547e+02
4.3947141e+02
4.0864307e+02
4.0686588e+02
4.0542795e+02
3.6258945e+02
4.5375165e+02
4.0553348e+02
4.0723782e+02
4.7219876e+02
4.1059479e+02
3.8910583e+02
4.1563901e+02
4.7622961e+02
5.0033392e+02
4.5876108e+02
4.2302661e+02
4.2241656e+02
4.2512961e+02
3.9506604e+02
4.3068610e+02
3.7004825e+02
4.6803064e+02
3.5118494e+02
3.4399960e+02
4.4406549e+02
3.5070398e+02
3.6169919e+02
3.7395328e+02
3.3973209e+02
3.8716449e+02
4.5118771e+02
4.0113379e+02
3.3677612e+02
4.1565506e+02
3.4296811e+02
4.3057843e+02
3.9794434e+02
3.9591156e+02
3.9412903e+02
3.5833777e+02
4.4537146e+02
3.9393210e+02
3.9538177e+02
4.6436984e+02
3.9853683e+02
3.8240988e+02
4.0343857e+02
4.6736255e+02
4.9307352e+02
4.5379166e+02
4.1377643e+02
4.1014136e+02
4.2226984e+02
3.9392325e+02
4.1841000e+02
3.7011639e+02
4.5635767e+02
3.5182858e+02
4.3194281e+02
3.3065833e+02
3.3786856e+02
3.4961563e+02
3.4021143e+02
3.6263004e+02
4.3831934e+02
3.7659091e+02
3.3631857e+02
3.9128622e+02
4.0649432e+02
3.4087625e+02
4.2204974e+02
3.8735684e+02
3.8505334e+02
3.5408890e+02
3.8290634e+02
3.8238727e+02
4.3738861e+02
3.8356198e+02
3.8649380e+02
3.7570111e+02
4.5696835e+02
3.9123123e+02
4.5890408e+02
4.8624652e+02
4.0449438e+02
4.4923141e+02
3.9783841e+02
4.1977359e+02
3.9307797e+02
4.0608902e+02
3.7040405e+02
4.4463882e+02
3.5261475e+02
4.1976593e+02
3.1743036e+02
3.2517886e+02
3.3772205e+02
3.4077066e+02
3.5154041e+02
4.2540219e+02
3.6629471e+02
3.3589935e+02
3.8176047e+02
3.9769952e+02
3.3879822e+02
4.1392923e+02
3.7687888e+02
3.7429099e+02
3.7176218e+02
3.4983640e+02
3.7090350e+02
4.2985049e+02
3.7178439e+02
3.7447174e+02
3.6897055e+02
4.5004556e+02
3.7902170e+02
4.5090784e+02
4.7990622e+02
3.9517072e+02
3.8550970e+02
4.4513068e+02
4.1768701e+02
3.9257086e+02
3.9372162e+02
3.7094513e+02
4.3286469e+02
4.0752960e+02
3.5356918e+02
3.0437347e+02
3.1268958e+02
3.4142596e+02
3.2606824e+02
4.1243219e+02
3.4073032e+02
3.5631964e+02
3.3552438e+02
3.7259988e+02
3.3673093e+02
3.8931570e+02
4.0626529e+02
3.6650455e+02
3.6362088e+02
3.6069672e+02
3.4557086e+02
3.5948462e+02
4.2281003e+02
3.6005530e+02
3.6247787e+02
3.6220566e+02
4.4365958e+02
3.6681628e+02
3.8579257e+02
4.4343591e+02
3.7315884e+02
4.7411505e+02
4.4154962e+02
4.1606638e+02
3.8130743e+02
3.9245255e+02
4.2102393e+02
3.7178247e+02
3.9522888e+02
3.5472458e+02
2.9155850e+02
3.0046631e+02
3.4219766e+02
3.9940570e+02
3.1471207e+02
3.3025177e+02
3.4671405e+02
3.3520065e+02
3.6385184e+02
3.3466928e+02
3.8139185e+02
3.5622250e+02
3.9911081e+02
3.5303473e+02
3.4970712e+02
3.4127875e+02
3.4813281e+02
4.1632596e+02
3.4838092e+02
3.5052069e+02
3.5538907e+02
4.3787610e+02
3.5462326e+02
3.7634299e+02
3.6079147e+02
4.3656024e+02
4.6894638e+02
4.3856049e+02
4.1498096e+02
3.6884763e+02
3.9278650e+02
4.0910272e+02
3.7297037e+02
3.8285931e+02
3.5612259e+02
3.8631976e+02
3.4311154e+02
2.7907010e+02
2.8858591e+02
3.0371948e+02
3.2016229e+02
3.3493661e+02
3.3753036e+02
3.5556699e+02
3.3260577e+02
3.7398013e+02
3.4601422e+02
3.4251819e+02
3.9252277e+02
3.3878601e+02
3.3694107e+02
3.3684775e+02
3.3676685e+02
4.1046277e+02
3.3860947e+02
3.4849683e+02
4.3276907e+02
3.4245279e+02
3.6679913e+02
3.4841556e+02
4.3036417e+02
4.6448685e+02
4.3625064e+02
4.1451617e+02
3.5634534e+02
3.9365244e+02
3.9708371e+02
3.7457806e+02
3.7041724e+02
3.5781671e+02
3.7317264e+02
3.4420090e+02
2.6700656e+02
2.7713580e+02
2.9316330e+02
3.1052393e+02
3.3474298e+02
3.2882388e+02
3.4779807e+02
3.3053000e+02
3.6713504e+02
3.3585211e+02
3.3204883e+02
3.3253204e+02
3.2791995e+02
3.8656149e+02
3.2562515e+02
3.2521698e+02
4.0529034e+02
3.2675394e+02
3.4149622e+02
3.3031705e+02
4.2842123e+02
3.5713062e+02
3.3604163e+02
4.2494394e+02
4.6083881e+02
4.3472577e+02
3.4380600e+02
4.1477783e+02
3.9515063e+02
3.8494516e+02
3.7669363e+02
3.5789999e+02
3.5987582e+02
3.5996420e+02
3.4550925e+02
2.5547809e+02
2.6621207e+02
2.8312119e+02
3.0140103e+02
3.3463434e+02
3.2065070e+02
3.4059793e+02
3.2842880e+02
3.6091135e+02
3.2569751e+02
3.2159415e+02
3.1708731e+02
3.2801752e+02
3.8128894e+02
3.1445505e+02
3.1373218e+02
4.0088318e+02
3.1496341e+02
3.3434354e+02
3.1822983e+02
4.2492404e+02
3.4729691e+02
3.2368311e+02
4.2041010e+02
4.5812320e+02
4.3411407e+02
3.3123782e+02
4.1589673e+02
3.7265945e+02
3.9740720e+02
3.4530643e+02
3.7942938e+02
3.6238898e+02
3.4669650e+02
3.4709409e+02
2.4460269e+02
2.5591536e+02
2.7367203e+02
3.3463156e+02
2.9285706e+02
3.1306476e+02
3.3401682e+02
3.2628687e+02
3.5536157e+02
3.1549832e+02
3.1110931e+02
3.2335379e+02
3.0625598e+02
3.7676657e+02
3.0331943e+02
3.0230835e+02
3.9731851e+02
3.2698120e+02
3.0324539e+02
3.0620590e+02
4.2237717e+02
3.3724438e+02
3.1135599e+02
4.1688879e+02
4.5648267e+02
4.3457086e+02
3.1865189e+02
4.1803445e+02
3.6019128e+02
4.0058002e+02
3.3263690e+02
3.8292792e+02
3.6547153e+02
3.3337448e+02
3.4903256e+02
2.3449889e+02
2.4634447e+02
2.6489059e+02
3.3476602e+02
2.8495016e+02
3.0611389e+02
3.2408875e+02
3.2809830e+02
3.5053204e+02
3.0518704e+02
3.0053448e+02
2.9538040e+02
3.1848694e+02
2.9218958e+02
3.7305151e+02
2.9093411e+02
2.9160385e+02
3.1933496e+02
3.9467343e+02
2.9425967e+02
4.2088693e+02
3.2690277e+02
2.9907834e+02
4.1452216e+02
4.5608453e+02
3.0606210e+02
4.3628333e+02
4.2138959e+02
3.4749524e+02
4.0486627e+02
3.1989337e+02
3.8737030e+02
3.6927316e+02
3.2000647e+02
3.5142896e+02
2.2527524e+02
2.3758734e+02
2.5684058e+02
3.3508597e+02
2.7772729e+02
2.9983441e+02
3.2182309e+02
3.2287436e+02
3.4645801e+02
2.9467862e+02
2.8979269e+02
3.1335388e+02
2.8439908e+02
2.8102313e+02
3.7019177e+02
2.7958789e+02
2.8003653e+02
3.1131189e+02
3.9302060e+02
2.8240356e+02
4.2056332e+02
3.1618146e+02
2.8686908e+02
4.1346777e+02
2.9348450e+02
4.5712384e+02
4.3947629e+02
4.2620496e+02
3.3451303e+02
4.1051065e+02
3.0707892e+02
3.9298511e+02
3.7398810e+02
3.0660452e+02
3.5442545e+02
2.1701630e+02
2.2970978e+02
3.3566681e+02
2.4956618e+02
2.7121762e+02
2.9424527e+02
3.1949063e+02
3.1835925e+02
2.8386948e+02
2.7878775e+02
3.4315695e+02
2.7323148e+02
3.0788635e+02
2.6976083e+02
3.6821976e+02
2.6823471e+02
2.6853220e+02
3.0279938e+02
3.9242209e+02
2.7064514e+02
4.2151526e+02
3.0496576e+02
2.7474588e+02
2.8093555e+02
4.1389676e+02
4.5982574e+02
4.4441760e+02
3.2117001e+02
4.3277536e+02
2.9419623e+02
4.1781479e+02
4.0005969e+02
2.9318417e+02
3.7986795e+02
3.5821667e+02
2.0976688e+02
3.3662613e+02
2.2274313e+02
2.4308350e+02
2.6542560e+02
2.8934152e+02
3.1711771e+02
3.1454269e+02
2.7263712e+02
2.6740329e+02
3.4062158e+02
3.0201965e+02
2.6177612e+02
2.5832385e+02
2.5682312e+02
3.6714417e+02
2.5706702e+02
2.9366772e+02
3.9292154e+02
2.5898380e+02
2.9311407e+02
4.2384360e+02
2.6272189e+02
2.6842914e+02
4.1598935e+02
4.6444699e+02
4.5142368e+02
3.0737146e+02
4.4145563e+02
2.8124503e+02
4.2714774e+02
4.0895316e+02
2.7976312e+02
3.8723785e+02
3.6306906e+02
3.3814594e+02
2.0351665e+02
2.1667287e+02
2.3737292e+02
2.6032495e+02
3.1477832e+02
2.8508844e+02
3.1138327e+02
2.6084167e+02
2.5550285e+02
2.4990953e+02
2.9571021e+02
3.3881152e+02
2.4661189e+02
2.4528239e+02
3.6694095e+02
2.4560141e+02
2.8377829e+02
3.9453400e+02
2.4740672e+02
2.8045798e+02
2.5080128e+02
4.2763153e+02
2.5597206e+02
4.1992828e+02
4.7127637e+02
2.9299863e+02
4.6086472e+02
4.5266904e+02
2.6821722e+02
4.3895703e+02
4.2011072e+02
2.6635809e+02
3.9651532e+02
3.6934537e+02
3.4050296e+02
1.9818901e+02
2.1143076e+02
2.3237439e+02
2.5585498e+02
3.1262827e+02
2.8141727e+02
3.0880286e+02
2.4832993e+02
2.4293242e+02
2.8896603e+02
2.3748708e+02
3.3764624e+02
2.3450323e+02
2.3352193e+02
3.6754385e+02
2.3407770e+02
2.7300266e+02
3.9723508e+02
2.3588513e+02
2.6680746e+02
2.3897415e+02
4.3293283e+02
2.4355760e+02
4.2588950e+02
4.8063376e+02
2.7790637e+02
4.7316943e+02
4.6691553e+02
2.5508965e+02
4.5378036e+02
4.3407956e+02
2.5297951e+02
4.0823151e+02
3.7753394e+02
3.4410834e+02
1.9363705e+02
2.0689313e+02
2.2798717e+02
2.5192036e+02
3.1095413e+02
2.7822455e+02
3.0668430e+02
2.3494221e+02
2.2952574e+02
2.8189737e+02
2.2434709e+02
3.3700006e+02
2.2185797e+02
2.2143309e+02
3.6883649e+02
2.6125946e+02
2.2242035e+02
2.2437207e+02
4.0094986e+02
2.5196722e+02
2.2721152e+02
4.3975836e+02
2.3115810e+02
4.3403070e+02
2.6192355e+02
4.9286755e+02
4.8882883e+02
2.4181432e+02
4.8477954e+02
4.7225699e+02
4.5152466e+02
2.3962354e+02
4.2305347e+02
3.8828043e+02
3.4955374e+02
1.8964851e+02
2.0288583e+02
2.2407495e+02
2.4839592e+02
3.1023825e+02
2.7537604e+02
2.2052393e+02
3.0487433e+02
2.1511369e+02
2.1031900e+02
2.7479370e+02
2.0852577e+02
3.3670291e+02
2.0889601e+02
3.7064911e+02
2.1054057e+02
2.4858073e+02
2.1280396e+02
4.0554446e+02
2.3577242e+02
2.1546359e+02
4.4806299e+02
2.1871912e+02
2.4486151e+02
4.4447955e+02
5.0835120e+02
5.0839877e+02
2.2830774e+02
5.0693628e+02
4.9513821e+02
4.7324368e+02
2.2626350e+02
4.4180447e+02
4.0241663e+02
3.5765714e+02
1.8595834e+02
1.9919511e+02
2.2047511e+02
3.1123364e+02
2.4513599e+02
2.7271777e+02
2.0494235e+02
1.9953894e+02
3.0319553e+02
1.9523698e+02
2.6823196e+02
1.9435953e+02
3.3655066e+02
1.9579283e+02
1.9834802e+02
2.3522313e+02
3.7276447e+02
2.0110985e+02
4.1082526e+02
2.1815990e+02
2.0366570e+02
4.5773679e+02
2.0616071e+02
2.2653839e+02
4.5732483e+02
5.2747852e+02
2.1444456e+02
5.3249982e+02
5.3415540e+02
5.2329553e+02
2.1284616e+02
5.0017993e+02
4.6547937e+02
4.2097922e+02
3.6949255e+02
1.8226448e+02
1.9557950e+02
2.1700867e+02
3.1502823e+02
2.4198672e+02
2.7009402e+02
1.8811133e+02
1.8267769e+02
3.0147028e+02
1.7896053e+02
2.6320358e+02
1.7923659e+02
3.3633163e+02
1.8202910e+02
1.8577196e+02
2.2183926e+02
3.7494064e+02
1.8923283e+02
4.1655289e+02
1.9930132e+02
1.9176001e+02
4.6860715e+02
1.9339705e+02
2.0683730e+02
4.7261615e+02
5.5065802e+02
2.0006854e+02
5.6181122e+02
5.6729822e+02
5.5772546e+02
1.9930785e+02
5.3343207e+02
4.9525500e+02
4.4521231e+02
3.8638580e+02
1.7824025e+02
1.9177638e+02
2.1348433e+02
3.2305743e+02
2.3879665e+02
2.6737183e+02
1.7002707e+02
1.6447101e+02
1.6140286e+02
2.6121188e+02
2.9956058e+02
1.6308734e+02
1.6756343e+02
3.3587665e+02
1.7279367e+02
2.0970271e+02
3.7696179e+02
1.7716891e+02
4.2248343e+02
1.7983899e+02
1.7974432e+02
4.8046442e+02
1.8039500e+02
1.8583292e+02
4.9038446e+02
1.8504857e+02
5.7830591e+02
5.9705267e+02
6.0730353e+02
5.9954706e+02
1.8564211e+02
5.7426471e+02
5.3249902e+02
4.7655704e+02
4.0986252e+02
1.7353778e+02
1.8749529e+02
3.3701566e+02
2.0968718e+02
2.3541705e+02
2.6446588e+02
1.5082162e+02
1.4497029e+02
2.6422968e+02
1.4256841e+02
2.9742389e+02
1.4593033e+02
1.5244290e+02
3.3514032e+02
2.0089801e+02
1.5948822e+02
3.7873077e+02
1.6502565e+02
4.2845523e+02
1.6125972e+02
1.6776120e+02
1.6730348e+02
4.9312857e+02
1.6406181e+02
1.6943855e+02
5.1069699e+02
6.1083240e+02
6.3894305e+02
6.5514862e+02
6.4999042e+02
1.7208543e+02
6.2412189e+02
5.7879651e+02
5.1665002e+02
4.4157239e+02
3.5864990e+02
1.6778003e+02
1.8239165e+02
2.0534267e+02
2.3167845e+02
1.3084567e+02
2.6135263e+02
1.2440503e+02
2.7438464e+02
1.2259938e+02
1.2790879e+02
2.9517664e+02
1.3683553e+02
3.3431665e+02
1.9820218e+02
1.4606465e+02
3.8041843e+02
1.5309294e+02
1.4632956e+02
4.3454584e+02
1.5623172e+02
1.5469576e+02
5.0659354e+02
1.4306871e+02
1.5385226e+02
5.3378601e+02
6.4862427e+02
6.8811176e+02
7.1177124e+02
1.5954625e+02
7.1035968e+02
6.8465863e+02
6.3601953e+02
5.6739172e+02
4.8326385e+02
3.8953494e+02
1.6054861e+02
1.7602504e+02
2.0004901e+02
2.2733446e+02
1.1079912e+02
1.0328869e+02
2.5804819e+02
1.0183363e+02
2.9338651e+02
1.0931953e+02
2.9314380e+02
1.2104104e+02
3.3397021e+02
1.3287741e+02
2.0429326e+02
1.4189006e+02
3.8267545e+02
1.3906239e+02
1.4599928e+02
4.4132413e+02
1.4392294e+02
5.2127289e+02
1.2635079e+02
1.4021754e+02
5.6026562e+02
6.9200031e+02
7.4495026e+02
7.7789868e+02
1.5044057e+02
7.8196130e+02
7.5777753e+02
7.0649731e+02
6.3116223e+02
5.3696686e+02
4.3105664e+02
1.5138203e+02
1.6781256e+02
1.9319609e+02
2.2196301e+02
9.1921959e+01
8.2592529e+01
3.2208478e+02
8.0882027e+01
2.5453804e+02
9.0621010e+01
2.9183167e+02
1.0544781e+02
1.2035565e+02
2.2046904e+02
3.3513531e+02
1.3209999e+02
3.8686407e+02
1.4329073e+02
1.3833235e+02
4.5020847e+02
1.3735750e+02
5.3842731e+02
1.2001878e+02
1.3275362e+02
5.9154279e+02
7.4118939e+02
8.0930750e+02
8.5376422e+02
1.4969890e+02
8.6588074e+02
8.4568011e+02
7.9329413e+02
7.1132678e+02
6.0554364e+02
4.8492810e+02
1.3980267e+02
1.5701781e+02
1.8391158e+02
7.6151443e+01
2.1488725e+02
6.4015373e+01
6.0767662e+01
3.6077539e+02
2.5062071e+02
7.2409218e+01
2.9179626e+02
9.0404945e+01
1.0877964e+02
2.4623270e+02
3.3922018e+02
1.2425001e+02
3.9521390e+02
1.6044412e+02
1.3447670e+02
4.6383813e+02
1.3777373e+02
5.6070386e+02
1.3091696e+02
1.3741321e+02
6.3029950e+02
7.9623492e+02
8.8010760e+02
1.6383882e+02
9.3839496e+02
9.6255920e+02
9.5072357e+02
9.0066968e+02
8.1306091e+02
6.9383655e+02
5.5444666e+02
1.2538905e+02
1.4280679e+02
1.7114589e+02
6.5739906e+01
5.0177505e+01
2.0520474e+02
4.3260902e+01
4.1068643e+02
5.5420090e+01
2.4580298e+02
7.6007309e+01
2.9322968e+02
9.7906876e+01
2.8122696e+02
3.4767416e+02
1.1806424e+02
4.1054181e+02
1.9024742e+02
1.3453465e+02
4.8633136e+02
1.4620738e+02
1.6236348e+02
5.9274481e+02
1.5725694e+02
6.8100757e+02
8.5695691e+02
9.5449048e+02
1.9644345e+02
1.0285851e+03
1.0702981e+03
1.0750012e+03
1.0344982e+03
9.4476837e+02
8.1025787e+02
6.4631073e+02
1.0786864e+02
1.2445540e+02
1.5400696e+02
6.1469307e+01
4.3686222e+01
3.1372501e+01
4.7669547e+02
1.9215440e+02
4.0805798e+01
2.3932921e+02
6.2035492e+01
2.9554761e+02
3.2926675e+02
8.6574043e+01
3.6078876e+02
1.1174056e+02
4.3565137e+02
2.3605730e+02
1.3612357e+02
5.2281726e+02
1.5952208e+02
2.1542963e+02
6.4171130e+02
1.8782915e+02
7.5029742e+02
9.2284113e+02
1.0265496e+03
2.4549606e+02
1.1160293e+03
1.1830345e+03
1.2178405e+03
1.2025502e+03
1.1199272e+03
9.6911548e+02
7.7198047e+02
8.7227806e+01
1.0175912e+02
6.0752388e+01
1.3257057e+02
4.3870041e+01
2.8117640e+01
5.6776971e+02
1.7577686e+02
3.1020630e+01
2.3059924e+02
4.8591335e+01
2.9699634e+02
7.2973808e+01
4.0178738e+02
3.7644553e+02
1.0149841e+02
4.7032605e+02
3.1077084e+02
1.3367661e+02
5.7938043e+02
1.6972023e+02
2.9508987e+02
7.1725873e+02
2.1756529e+02
8.4451410e+02
9.9199139e+02
3.0447232e+02
1.0866478e+03
1.1827468e+03
1.2812510e+03
1.3717147e+03
1.4141304e+03
1.3620118e+03
1.1937814e+03
9.4109460e+02
6.3711815e+01
7.6002312e+01
5.8653908e+01
4.5872597e+01
1.0914619e+02
6.8782928e+02
3.2575680e+01
1.5749615e+02
2.9736595e+01
2.1889847e+02
3.8537830e+01
2.9484885e+02
5.0973956e+02
5.6730247e+01
3.8902179e+02
8.2890892e+01
4.3096832e+02
5.0798618e+02
1.1822180e+02
6.5501459e+02
1.6388446e+02
4.1082150e+02
8.3505402e+02
2.2806345e+02
9.7019769e+02
3.6272699e+02
1.0541466e+03
1.1127499e+03
1.2038429e+03
1.3291304e+03
1.4990259e+03
1.6703453e+03
1.7182510e+03
1.5214386e+03
1.1492455e+03
5.0612999e+01
3.8486633e+01
4.4736572e+01
5.2192680e+01
4.0424404e+01
8.0403400e+02
8.8888573e+01
3.9461605e+01
1.3918207e+02
4.1103012e+01
2.0333464e+02
4.6666187e+01
6.2667230e+02
2.8568607e+02
5.8340855e+01
3.9305371e+02
5.9377911e+02
8.1700768e+01
5.3623950e+02
1.2600694e+02
7.3683813e+02
5.7441705e+02
1.9418936e+02
1.0015142e+03
4.0160419e+02
1.0976473e+03
1.0402936e+03
1.0808508e+03
1.1770918e+03
1.3132424e+03
1.5174377e+03
1.8413541e+03
2.2723420e+03
2.0541377e+03
1.3051747e+03
3.4494267e+01
3.9379570e+01
2.4780457e+01
4.2864628e+01
8.1832129e+02
5.0285877e+01
8.0118141e+01
5.9506851e+01
1.2806917e+02
6.5264046e+01
1.9108522e+02
6.7225990e+01
6.7061676e+02
2.7486850e+02
6.5703415e+01
3.8763950e+02
7.2274139e+02
6.6125908e+01
5.4226556e+02
9.2083954e+01
7.6106909e+02
7.9740735e+02
1.5659190e+02
1.1165790e+03
4.4798578e+02
1.1380907e+03
9.5785504e+02
1.0222153e+03
1.1330710e+03
1.2674541e+03
1.4644480e+03
1.8252764e+03
2.0806960e+03
1.8310630e+03
1.0565653e+03
1.2051010e+03
8.0209589e+02
1.1387585e+03
2.2090780e+01
3.6545807e+01
5.8967838e+01
7.5353217e+02
8.1092261e+02
7.7349930e+01
1.0115147e+03
9.1535004e+01
4.1852734e+03
1.0193476e+02
5.7958167e+02
5.5802673e+02
9.9707013e+02
1.0964975e+02
2.8999468e+03
2.9718454e+02
6.3633582e+02
7.0122943e+02
8.9247139e+03
1.1464659e+02
1.9029845e+03
1.4869670e+02
5.8078047e+03
3.4948605e+02
4.5942386e+02
7.4624518e+02
1.0024518e+03
2.7564886e+02
2.0752744e+03
3.7182541e+02
3.8754437e+02
5.9174438e+02
5.9411279e+02
1.1781516e+03
2.5903265e+02
3.0720731e+02
5.8839362e+02
3.3215948e+02
1.3956395e+02
2.2580821e+02
1.8264920e+02
1.0898058e+02
1.2910809e+02
1.1648938e+02
VON_MISES_STRESS_MIDDLE_SURFACE 1 3567  float
1.6432981e+03
1.5326276e+03
1.6358665e+03
1.5425519e+03
1.4252136e+03
1.4691320e+03
1.5169623e+03
1.4824974e+03
1.5361781e+03
1.4685039e+03
1.4281466e+03
1.4749672e+03
1.5197764e+03
1.5342676e+03
1.5796597e+03
1.7317537e+03
1.4143235e+03
1.4467640e+03
1.7294547e+03
1.5681124e+03
1.6770223e+03
1.4914603e+03
2.4050066e+03
1.4007898e+03
1.5588438e+03
1.5036710e+03
1.8817526e+03
1.4186167e+03
1.6199554e+03
1.4421570e+03
1.4641367e+03
1.4362876e+03
1.4402778e+03
1.3675106e+03
1.3821656e+03
1.3283245e+03
1.3903838e+03
1.2616178e+03
1.3999463e+03
1.3479250e+03
1.3991681e+03
1.1531693e+03
1.3921564e+03
3.7549246e+02
1.3608271e+03
1.3124679e+03
4.8485892e+02
1.3643308e+03
1.1600780e+03
1.3589812e+03
6.8723370e+02
1.3665815e+03
8.4373523e+02
1.3577799e+03
1.1994290e+03
1.3017601e+03
3.8504150e+02
1.3391096e+03
4.9090256e+02
9.9446356e+02
1.3405988e+03
1.3341189e+03
1.3401339e+03
6.8981970e+02
1.2351265e+03
1.3326656e+03
8.4160754e+02
1.1122788e+03
1.2979133e+03
1.3167164e+03
9.9336639e+02
1.5155480e+03
1.3183060e+03
1.4857697e+03
1.3191458e+03
1.3454939e+03
1.1885006e+03
1.2594563e+03
1.3182140e+03
1.2946226e+03
1.1111132e+03
1.1812881e+03
1.3127944e+03
1.1699810e+03
1.3026273e+03
1.2340530e+03
2.7697183e+03
1.2988352e+03
1.1877037e+03
1.2725646e+03
1.2995712e+03
1.9031113e+03
2.1328591e+03
1.8292224e+03
1.2990726e+03
1.2517999e+03
1.6650328e+03
1.3052788e+03
1.6358274e+03
1.2894901e+03
1.2022629e+03
1.3375309e+03
9.3803455e+02
1.4260179e+03
1.2956887e+03
9.7933313e+02
1.4466852e+03
1.2587914e+03
1.0350837e+03
1.2916285e+03
1.2336479e+03
6.9208710e+02
1.3155084e+03
1.2896213e+03
1.2354598e+03
7.3172711e+02
1.3200206e+03
1.2771129e+03
1.0536241e+03
7.8555316e+02
1.2100326e+03
1.2806270e+03
1.2814435e+03
1.2816135e+03
4.7844946e+02
1.2714302e+03
1.2821830e+03
8.2226837e+02
1.0281777e+03
5.2122156e+02
1.2408066e+03
1.2590045e+03
5.7580634e+02
1.1393630e+03
1.2799370e+03
1.2601704e+03
1.2699535e+03
8.2661517e+02
6.1849823e+02
9.8361023e+02
1.2756123e+03
2.8800903e+02
1.2581378e+03
1.2767456e+03
3.4450369e+02
1.1949093e+03
4.0654776e+02
1.0844094e+03
6.3672638e+02
8.0698822e+02
1.2634496e+03
4.5599054e+02
9.3913354e+02
1.2750341e+03
1.2643854e+03
1.2709460e+03
1.2729749e+03
1.2651825e+03
1.2724347e+03
1.5970818e+02
1.2552437e+03
2.3731012e+02
1.1689178e+03
6.3312921e+02
4.8248434e+02
7.7692432e+02
3.1072275e+02
1.0445306e+03
1.2648345e+03
1.2700167e+03
3.6641815e+02
9.0061420e+02
1.2636528e+03
4.8876974e+02
6.1612140e+02
1.2820817e+03
1.8994292e+02
1.2548456e+03
1.2742920e+03
3.9848285e+02
2.6290265e+02
7.4595367e+02
1.1533507e+03
3.3204001e+02
1.0161614e+03
1.2623042e+03
1.2470521e+03
1.2693859e+03
1.2480975e+03
4.8126102e+02
8.6969238e+02
3.8564481e+02
1.2494042e+03
4.1075647e+02
5.9383582e+02
1.2500472e+03
4.1761420e+02
7.1812085e+02
1.2616903e+03
3.4819809e+02
1.2534679e+03
1.2832645e+03
3.9819620e+02
1.1427330e+03
1.2720905e+03
1.2502786e+03
4.0949683e+02
4.5417773e+02
4.6676877e+02
9.9552582e+02
5.7154749e+02
4.3138077e+02
5.0063522e+02
8.4559448e+02
1.2627833e+03
1.2505750e+03
1.6307218e+03
1.2312264e+03
1.4763408e+03
1.6114373e+03
5.2856641e+02
6.9488635e+02
1.2323623e+03
4.0087613e+02
1.4831371e+03
1.2959261e+03
1.4060146e+03
5.3344592e+02
1.2500773e+03
4.3255377e+02
4.5037964e+02
1.2340585e+03
1.1340552e+03
1.3549126e+03
1.4284760e+03
5.7469629e+02
1.2802212e+03
9.7981921e+02
1.3869655e+03
6.2578900e+02
1.2395114e+03
1.3319746e+03
1.2515469e+03
1.2354277e+03
1.2833523e+03
1.3633088e+03
5.3989191e+02
5.5172363e+02
1.2662535e+03
1.3329113e+03
1.3801315e+03
6.6808923e+02
8.2682928e+02
1.2162528e+03
1.3004091e+03
1.2366613e+03
3.8961765e+02
1.2507614e+03
1.3304303e+03
4.2680511e+02
1.3604333e+03
1.3003052e+03
1.3611609e+03
6.9130792e+02
6.7615094e+02
5.3974817e+02
4.3504361e+02
1.2538594e+03
1.2094987e+03
1.2864241e+03
7.3060382e+02
1.2445477e+03
1.3403246e+03
1.3669636e+03
1.2381040e+03
1.1258230e+03
1.2384043e+03
1.3122208e+03
7.7055975e+02
9.6707593e+02
1.2158175e+03
1.2882268e+03
1.3453702e+03
8.2301160e+02
6.9788470e+02
5.3523010e+02
1.2741335e+03
1.2170253e+03
1.3633732e+03
4.1839578e+02
1.2190131e+03
8.1194214e+02
3.7861963e+02
1.3327876e+03
1.3622550e+03
8.6196344e+02
5.3344055e+02
1.2158806e+03
1.2799612e+03
1.2401862e+03
1.2418352e+03
1.3007562e+03
1.2579778e+03
1.2209111e+03
1.2930181e+03
1.3314989e+03
4.2204257e+02
6.9385858e+02
6.6120520e+02
1.3636272e+03
1.3707991e+03
8.7788123e+02
1.3401552e+03
1.3526316e+03
1.2228627e+03
9.4664154e+02
1.2371190e+03
1.2365735e+03
1.2760868e+03
9.9015167e+02
5.2484460e+02
4.0992200e+02
1.1173488e+03
1.2433845e+03
5.2198596e+02
1.2621364e+03
1.3781296e+03
1.2923407e+03
8.7712305e+02
1.3731696e+03
1.3670925e+03
1.0411094e+03
9.5603839e+02
3.6926349e+02
1.3164724e+03
1.3187102e+03
6.8472852e+02
1.2251213e+03
1.2658467e+03
1.0684243e+03
7.9973120e+02
1.3634368e+03
1.3399928e+03
1.2007150e+03
4.1167474e+02
1.3888794e+03
1.3787324e+03
8.6777069e+02
1.2019790e+03
1.2041835e+03
1.2801440e+03
1.2722140e+03
1.0707129e+03
6.4919818e+02
1.2480253e+03
1.2279990e+03
1.3087897e+03
1.3923383e+03
1.3565635e+03
1.2846460e+03
5.1619379e+02
1.3636539e+03
1.3063336e+03
6.7398346e+02
4.0262158e+02
1.2064673e+03
1.3898370e+03
1.2190740e+03
1.2281256e+03
1.4003179e+03
1.3257542e+03
1.0609684e+03
5.1151004e+02
3.6195261e+02
1.4030291e+03
1.3697991e+03
1.2492579e+03
8.5503265e+02
1.1083680e+03
1.2089379e+03
1.2684584e+03
9.4592578e+02
1.2318489e+03
1.4152449e+03
1.3420697e+03
1.3999736e+03
1.2671678e+03
1.2559589e+03
1.4129507e+03
1.2765734e+03
1.2652550e+03
7.8930255e+02
1.0466215e+03
4.0371060e+02
1.2117856e+03
1.4335187e+03
1.4003813e+03
1.3807424e+03
1.2939507e+03
6.6348065e+02
5.0851605e+02
3.9686212e+02
1.4158229e+03
1.3553492e+03
1.2530543e+03
8.4172522e+02
6.3934882e+02
1.4344410e+03
1.3107487e+03
1.1858418e+03
1.2368936e+03
1.1871488e+03
1.2152412e+03
3.5657016e+02
1.4290726e+03
1.3256689e+03
1.0312830e+03
1.1895133e+03
1.3891837e+03
1.2386733e+03
5.0321274e+02
1.4671992e+03
1.2605265e+03
1.4073961e+03
1.3657754e+03
1.2178937e+03
1.4594319e+03
1.2676318e+03
1.0988235e+03
1.1920787e+03
1.4227634e+03
1.2813820e+03
6.5398132e+02
9.3627338e+02
5.0209216e+02
1.4199592e+03
1.3381399e+03
8.2909534e+02
1.2195704e+03
1.3961423e+03
1.2954866e+03
1.2241896e+03
3.9771808e+02
1.1949274e+03
7.8002460e+02
1.2448983e+03
1.0163885e+03
3.9255167e+02
1.3936079e+03
1.3731722e+03
6.3102545e+02
1.3783490e+03
1.3086013e+03
1.4080046e+03
1.3479308e+03
1.1982039e+03
1.2522833e+03
1.2576991e+03
3.5277692e+02
1.2099742e+03
1.2249166e+03
1.2685619e+03
6.4563727e+02
4.9654257e+02
1.3647147e+03
1.3199242e+03
8.1753534e+02
1.1711438e+03
1.3768804e+03
1.2067050e+03
1.0023521e+03
4.9682333e+02
1.2020812e+03
1.1724817e+03
1.2802463e+03
1.3938798e+03
1.3548672e+03
1.0887520e+03
1.1749626e+03
9.2681433e+02
1.3523844e+03
1.3290447e+03
3.9323602e+02
1.2915533e+03
1.1958866e+03
3.8941077e+02
1.1777335e+03
7.7146960e+02
1.2329747e+03
1.2067614e+03
1.2426266e+03
1.1808578e+03
1.3781774e+03
1.3587607e+03
6.2375128e+02
1.2468331e+03
1.3016700e+03
8.0702979e+02
1.2554883e+03
9.8918402e+02
6.3831354e+02
1.3397469e+03
1.3358030e+03
3.5018857e+02
1.1844473e+03
1.2651542e+03
1.1818071e+03
4.9246494e+02
4.9104401e+02
1.3101433e+03
1.2123252e+03
1.1947885e+03
1.2748468e+03
1.0782269e+03
1.3614639e+03
1.3401990e+03
9.1740356e+02
1.3262053e+03
3.8712527e+02
1.1886322e+03
1.1565811e+03
3.8985715e+02
1.1579391e+03
1.1605021e+03
9.7676044e+02
7.6335669e+02
1.2318130e+03
1.2838445e+03
7.9740271e+02
1.3168191e+03
1.2351709e+03
1.2421855e+03
1.1677131e+03
6.3177765e+02
1.1634215e+03
1.2204147e+03
6.1718335e+02
1.1935667e+03
3.4845978e+02
1.2502465e+03
1.2917196e+03
1.1667465e+03
1.3117220e+03
1.3442274e+03
4.8875272e+02
1.3217428e+03
4.8636676e+02
1.2585881e+03
1.1705638e+03
9.6493347e+02
1.1992828e+03
3.8541876e+02
1.1823251e+03
1.2983234e+03
1.1536520e+03
1.2666156e+03
7.8844257e+02
1.0673297e+03
3.8725598e+02
1.2200985e+03
9.0796851e+02
1.2228683e+03
1.2965197e+03
1.2286879e+03
6.2579620e+02
1.1749718e+03
1.3268453e+03
7.5550677e+02
1.1421237e+03
1.2739556e+03
1.1434922e+03
1.2355133e+03
1.1461095e+03
1.3036764e+03
3.4731497e+02
6.1108350e+02
1.2073851e+03
4.8546021e+02
1.2427703e+03
1.1491344e+03
1.1800884e+03
9.5356989e+02
1.1396935e+03
1.2804658e+03
4.8225439e+02
1.1526041e+03
7.7995782e+02
1.2808888e+03
1.2499906e+03
3.8407672e+02
1.2077068e+03
1.3095795e+03
1.2100708e+03
1.1694547e+03
1.1565862e+03
1.2150308e+03
6.2017566e+02
3.8518851e+02
1.1859076e+03
1.0561375e+03
1.2568638e+03
8.9847858e+02
1.2861206e+03
1.2209253e+03
7.4780908e+02
1.1611545e+03
4.8241620e+02
1.2273348e+03
3.4655029e+02
1.1258990e+03
9.4256116e+02
1.2650913e+03
6.0529077e+02
1.1277480e+03
1.2632571e+03
1.1940100e+03
1.1291187e+03
1.1317682e+03
1.2925889e+03
1.2339022e+03
7.7179633e+02
1.1663997e+03
4.7852570e+02
1.1348654e+03
1.1948186e+03
1.1969017e+03
3.8294662e+02
6.1477258e+02
1.2690988e+03
1.2012461e+03
1.2403770e+03
1.1384376e+03
3.8347974e+02
1.2064489e+03
1.1562845e+03
1.0447170e+03
1.1722863e+03
8.8892639e+02
1.2493229e+03
1.1123086e+03
1.1425374e+03
1.2122080e+03
9.3182288e+02
7.4019727e+02
4.7950287e+02
1.2466389e+03
3.4602328e+02
1.2759526e+03
5.9969891e+02
7.6384668e+02
1.2182573e+03
1.1472198e+03
1.1803817e+03
1.1134355e+03
1.1148013e+03
1.1815724e+03
1.2525807e+03
4.7505600e+02
1.1834589e+03
1.1174652e+03
3.8192761e+02
1.2243986e+03
1.1873616e+03
6.0948914e+02
1.1525543e+03
1.2337091e+03
1.1206090e+03
1.1920533e+03
1.0989392e+03
3.8200867e+02
1.1242518e+03
9.2129132e+02
1.1428959e+03
1.2305264e+03
1.1973188e+03
1.0331241e+03
1.2596931e+03
8.7931647e+02
4.7664569e+02
1.1584834e+03
1.1284342e+03
7.3263324e+02
3.4563892e+02
1.2029625e+03
7.5603253e+02
1.2365093e+03
5.9423938e+02
1.1331968e+03
1.1680713e+03
1.2183160e+03
1.2088293e+03
1.1698167e+03
1.1665693e+03
1.1733994e+03
6.0426410e+02
3.8095758e+02
1.0857893e+03
4.7176138e+02
1.0991709e+03
1.1777141e+03
1.1005260e+03
1.1385927e+03
1.2437963e+03
9.1091907e+02
1.1031902e+03
1.2148296e+03
3.8069370e+02
1.1826071e+03
1.1063611e+03
1.1293500e+03
4.7380212e+02
1.0214043e+03
1.1100505e+03
1.1879358e+03
7.4830426e+02
8.6965881e+02
1.1445471e+03
3.4533646e+02
1.2208187e+03
7.2509662e+02
1.2031665e+03
1.1142896e+03
1.1935802e+03
1.1543892e+03
5.8886865e+02
1.1560305e+03
1.0728442e+03
1.1593776e+03
5.9906244e+02
3.8000146e+02
1.1526246e+03
1.1191072e+03
1.1634125e+03
1.2282269e+03
4.6858636e+02
9.0067108e+02
1.1994662e+03
1.1680244e+03
1.0849418e+03
1.0862817e+03
3.7948117e+02
1.1245447e+03
1.0889354e+03
4.7095117e+02
7.4063147e+02
1.1731101e+03
1.1156931e+03
1.2054435e+03
1.0095933e+03
1.1882548e+03
1.0921184e+03
8.5996515e+02
3.4507880e+02
1.0958365e+03
1.1785769e+03
7.1757721e+02
1.1305139e+03
1.0600824e+03
1.1405785e+03
1.1421403e+03
5.9386688e+02
1.1453101e+03
5.8355975e+02
1.1001129e+03
1.2129410e+03
8.9052148e+02
1.1491353e+03
3.7904184e+02
1.1843651e+03
4.6549481e+02
1.1385863e+03
1.1535347e+03
1.1049680e+03
3.7833646e+02
1.1735588e+03
1.1903239e+03
1.1584333e+03
7.3299664e+02
4.6808536e+02
1.0707379e+03
1.1104335e+03
1.0720597e+03
1.1019596e+03
1.0746949e+03
1.0474790e+03
9.9771936e+02
1.1637600e+03
3.4484415e+02
8.5024677e+02
1.0778788e+03
1.1266759e+03
1.1978925e+03
7.1007123e+02
1.1281744e+03
1.1164113e+03
1.0816123e+03
1.1312076e+03
5.8867102e+02
8.8045111e+02
1.1694678e+03
5.7829639e+02
1.1348733e+03
3.7807205e+02
1.0859122e+03
1.1391111e+03
4.6246347e+02
1.1244835e+03
1.1590492e+03
1.1754081e+03
1.0907922e+03
1.1438662e+03
7.2539038e+02
3.7723758e+02
4.6520511e+02
1.0350094e+03
1.1490835e+03
1.0962770e+03
1.0881750e+03
1.0565514e+03
9.8580432e+02
1.1830376e+03
1.0578529e+03
3.4462061e+02
1.1127068e+03
8.4051392e+02
1.0604637e+03
1.1141536e+03
1.1170781e+03
5.8347473e+02
7.0257788e+02
8.7044568e+02
1.0636405e+03
1.1547274e+03
1.1206207e+03
1.1022601e+03
1.0673799e+03
5.7306879e+02
3.7709149e+02
1.1247345e+03
1.1446945e+03
1.1606530e+03
1.0716936e+03
4.5947760e+02
1.1293793e+03
7.1780823e+02
1.1103380e+03
4.6231470e+02
1.0226508e+03
3.7617081e+02
1.0765900e+03
1.1345123e+03
1.1683381e+03
1.0986888e+03
3.4440204e+02
1.0743585e+03
1.0820884e+03
1.1000917e+03
9.7386493e+02
8.6049438e+02
1.1401073e+03
1.0423759e+03
5.7828113e+02
8.3077539e+02
1.1029277e+03
1.0436556e+03
1.0462384e+03
1.1063735e+03
6.9509839e+02
1.1304653e+03
1.0494025e+03
3.7610254e+02
1.0880763e+03
1.1103912e+03
5.6787164e+02
1.1460233e+03
1.0531409e+03
1.1149513e+03
7.1024866e+02
4.5652795e+02
1.0103832e+03
1.0574618e+03
4.5941992e+02
1.0961658e+03
3.7512769e+02
1.1537614e+03
1.1200204e+03
1.0623693e+03
1.0846340e+03
1.0859988e+03
8.5058911e+02
3.4418579e+02
1.1255793e+03
1.0605240e+03
1.0887611e+03
5.7309442e+02
9.6191388e+02
1.0678784e+03
1.1163358e+03
8.2103839e+02
1.0921293e+03
1.0282061e+03
6.8763440e+02
1.0294636e+03
1.0960719e+03
1.0320161e+03
1.1314912e+03
3.7510886e+02
5.6270197e+02
1.0738717e+03
1.0351637e+03
1.1005669e+03
7.0271155e+02
9.9818976e+02
1.0388970e+03
4.5360886e+02
1.1392808e+03
4.5652676e+02
1.1055879e+03
1.0432208e+03
1.0819792e+03
3.7410309e+02
8.4072388e+02
1.0481361e+03
1.0705510e+03
1.1111219e+03
1.0718820e+03
5.6791907e+02
1.1022844e+03
3.4397095e+02
1.0745814e+03
1.0466816e+03
1.0778862e+03
9.4996082e+02
8.1130865e+02
1.0536550e+03
1.1170347e+03
1.0817697e+03
6.8018811e+02
3.7411411e+02
1.0140382e+03
1.0152735e+03
1.0177945e+03
9.8605688e+02
5.5755847e+02
1.0862148e+03
6.9519733e+02
1.0596555e+03
1.0209237e+03
1.1248750e+03
4.5071686e+02
1.0246492e+03
1.0912006e+03
4.5364062e+02
3.7309393e+02
1.0677872e+03
1.0289738e+03
8.3089404e+02
1.0967186e+03
1.0882936e+03
1.0564457e+03
1.0577463e+03
1.0603912e+03
5.6275916e+02
1.0338954e+03
3.4375751e+02
1.0636437e+03
1.0328390e+03
1.1026367e+03
9.3801300e+02
1.0674800e+03
8.0159088e+02
1.0394242e+03
3.7312170e+02
6.7276154e+02
9.7397388e+02
1.0718871e+03
6.8770691e+02
5.5244073e+02
9.9986926e+02
1.0010826e+03
1.1105277e+03
1.0035721e+03
1.0454343e+03
1.0768478e+03
4.4785001e+02
1.0066820e+03
4.5076614e+02
1.0103987e+03
8.2109631e+02
3.7209848e+02
1.0743500e+03
1.0823573e+03
1.0535964e+03
1.0423223e+03
1.0147228e+03
1.0435955e+03
1.0461921e+03
5.5761816e+02
3.4354590e+02
1.0494006e+03
1.0196507e+03
1.0882847e+03
1.0190013e+03
1.0531992e+03
9.2607587e+02
7.9188873e+02
9.6193243e+02
3.7213446e+02
1.0251906e+03
6.6535645e+02
1.0575778e+03
6.8024115e+02
1.0962262e+03
5.4734882e+02
9.8569708e+02
1.0625215e+03
9.8688916e+02
1.0312135e+03
9.8934778e+02
4.4790692e+02
4.4500723e+02
9.9243842e+02
1.0604431e+03
8.1132819e+02
1.0680287e+03
3.7111563e+02
9.9614606e+02
1.0281837e+03
1.0394116e+03
1.0294316e+03
1.0319856e+03
5.5249896e+02
1.0004700e+03
1.0739688e+03
1.0351569e+03
3.4333661e+02
1.0389252e+03
1.0054049e+03
9.4992645e+02
1.0051726e+03
9.1415338e+02
7.8220514e+02
3.7115457e+02
6.7280090e+02
1.0432825e+03
1.0819613e+03
6.5797455e+02
1.0109578e+03
1.0482161e+03
5.4228320e+02
4.4506589e+02
9.7151990e+02
4.4218802e+02
1.0465656e+03
1.0169966e+03
9.7269159e+02
8.0158801e+02
9.7512048e+02
1.0537261e+03
9.7819275e+02
3.7014490e+02
1.0140323e+03
1.0152570e+03
9.8189209e+02
5.4740381e+02
1.0177723e+03
1.0252366e+03
1.0596816e+03
1.0209118e+03
3.4313013e+02
9.8621674e+02
1.0246560e+03
9.3795148e+02
9.9116016e+02
9.9135553e+02
1.0677261e+03
1.0289982e+03
6.6538690e+02
9.0224872e+02
3.7018375e+02
7.7254236e+02
6.5061743e+02
1.0339271e+03
9.9672839e+02
5.3724457e+02
1.0327122e+03
4.4224521e+02
7.9187476e+02
1.0394445e+03
4.3939224e+02
1.0027867e+03
9.5733661e+02
9.5848895e+02
9.6088965e+02
9.9986951e+02
1.0010725e+03
3.6918594e+02
9.6394476e+02
5.4233453e+02
1.0035530e+03
1.0454183e+03
1.0066652e+03
9.6763715e+02
1.0110737e+03
9.2600439e+02
3.4292676e+02
1.0103904e+03
9.7196405e+02
1.0535157e+03
1.0147227e+03
6.5799988e+02
9.7755200e+02
3.6922311e+02
9.7691803e+02
8.9036407e+02
7.6290228e+02
1.0196517e+03
6.4328644e+02
1.0188789e+03
9.8250439e+02
5.3223352e+02
4.3944656e+02
7.8218774e+02
1.0251801e+03
4.3662006e+02
9.8858569e+02
9.4314642e+02
9.8569635e+02
9.4428046e+02
9.8687933e+02
3.6823871e+02
1.0311750e+03
9.4665479e+02
9.8932806e+02
5.3729248e+02
9.4969452e+02
9.9241693e+02
9.1408325e+02
9.9692511e+02
9.5338165e+02
3.4272681e+02
9.9612732e+02
1.0393270e+03
9.5771289e+02
1.0004540e+03
6.5064056e+02
3.6827359e+02
9.6376349e+02
8.7850122e+02
9.6267987e+02
7.5328644e+02
1.0053873e+03
1.0050636e+03
6.3598273e+02
5.2725092e+02
7.7252679e+02
4.3667114e+02
9.6828735e+02
1.0109304e+03
4.3387164e+02
9.7151373e+02
9.7439526e+02
9.7267792e+02
1.0169489e+03
5.3227899e+02
9.7509784e+02
3.6730313e+02
9.2894879e+02
9.3006573e+02
9.7816675e+02
9.3241565e+02
9.0218671e+02
9.3544196e+02
9.8186615e+02
9.8279218e+02
3.4253046e+02
1.0251575e+03
9.3912598e+02
9.8619122e+02
6.4330969e+02
9.4346381e+02
3.6733575e+02
9.4999097e+02
9.9113251e+02
9.9126465e+02
8.6666162e+02
7.4369611e+02
9.4844647e+02
6.2870752e+02
7.6289191e+02
9.9669360e+02
4.3391986e+02
5.2229749e+02
9.5407825e+02
4.3114740e+02
1.0027383e+03
9.5732214e+02
9.5846875e+02
9.6086243e+02
5.2729498e+02
9.6021655e+02
3.6637924e+02
8.9031415e+02
9.6391443e+02
9.1474335e+02
9.1584430e+02
9.1817194e+02
9.6760626e+02
1.0110059e+03
3.4233783e+02
9.2118701e+02
9.6867603e+02
6.3600793e+02
9.7193323e+02
9.2487030e+02
9.7748126e+02
3.6640994e+02
9.2921735e+02
9.7688599e+02
9.3623511e+02
8.5484637e+02
7.3413251e+02
9.3421869e+02
7.5328333e+02
6.2146179e+02
9.8246838e+02
4.3119351e+02
5.1737408e+02
9.3987811e+02
9.8854211e+02
4.2844766e+02
9.4312189e+02
9.4425220e+02
9.4662201e+02
5.2234125e+02
8.7846539e+02
9.4605048e+02
9.4965997e+02
3.6546710e+02
9.9687134e+02
9.5334735e+02
9.0052991e+02
9.0161615e+02
9.0392365e+02
3.4214896e+02
6.2873602e+02
9.5457751e+02
9.5767957e+02
9.0692981e+02
9.6371301e+02
9.1061487e+02
9.6264716e+02
3.6549643e+02
9.1497394e+02
9.2249652e+02
8.4305640e+02
7.4370154e+02
7.2459662e+02
9.6825397e+02
6.1424664e+02
9.1999695e+02
4.2849255e+02
5.1248151e+02
9.7435956e+02
9.2568750e+02
9.2891327e+02
4.2577283e+02
9.3002838e+02
5.1741870e+02
9.3237659e+02
8.6664062e+02
9.3540314e+02
3.6456680e+02
9.3189783e+02
9.8275366e+02
9.3908911e+02
8.8630847e+02
3.4196384e+02
8.8738116e+02
9.4342975e+02
6.2149475e+02
8.8967072e+02
9.4049719e+02
9.4995996e+02
8.9267041e+02
9.4841534e+02
3.6459534e+02
8.9635980e+02
9.0877557e+02
9.0073383e+02
7.3414709e+02
8.3129260e+02
9.5404980e+02
7.1508942e+02
4.2581754e+02
6.0706299e+02
9.0578180e+02
9.6019031e+02
5.0762054e+02
9.1469641e+02
9.1579749e+02
9.1150702e+02
8.5484009e+02
4.2312338e+02
9.1812622e+02
5.1252802e+02
9.2114404e+02
9.6865277e+02
3.6367838e+02
9.2483142e+02
9.1775909e+02
9.2918353e+02
6.1428485e+02
3.4178247e+02
9.3622223e+02
8.7207898e+02
8.7313928e+02
9.2643585e+02
8.7541309e+02
9.3419043e+02
8.7840881e+02
3.6370679e+02
8.8210535e+02
7.2462073e+02
9.3985577e+02
8.9507269e+02
8.1955579e+02
8.8649731e+02
7.0561182e+02
4.2316885e+02
5.9991193e+02
9.4603424e+02
8.9157355e+02
5.0279205e+02
9.0047150e+02
8.4306445e+02
9.0155951e+02
9.0387097e+02
5.0766998e+02
4.2049969e+02
8.9733716e+02
9.5456885e+02
9.0688251e+02
3.6280191e+02
9.1057410e+02
9.0363483e+02
9.1494080e+02
6.0710718e+02
9.2250018e+02
3.4160480e+02
8.5784155e+02
9.1997217e+02
8.5889062e+02
9.1239386e+02
8.6115094e+02
3.6283078e+02
8.6414508e+02
7.1512311e+02
9.2567175e+02
8.6785162e+02
8.8138824e+02
8.0784668e+02
8.7226465e+02
4.2054684e+02
6.9616473e+02
9.3189154e+02
5.9279437e+02
8.7737262e+02
4.9799686e+02
8.3131439e+02
8.8623853e+02
8.8731458e+02
8.8961084e+02
5.0284528e+02
9.4050232e+02
4.1790225e+02
8.8317828e+02
8.9261853e+02
8.9631720e+02
3.6193750e+02
8.8952551e+02
9.0879437e+02
9.0070154e+02
5.9996259e+02
3.4143079e+02
9.0576068e+02
8.9837189e+02
8.4359625e+02
8.4463525e+02
3.6196735e+02
8.4688422e+02
7.0565521e+02
9.1149780e+02
8.4987946e+02
8.5359882e+02
8.6772266e+02
7.9616614e+02
4.1795190e+02
6.8674921e+02
9.1776239e+02
8.5803613e+02
5.8571130e+02
8.1959058e+02
4.9323578e+02
8.7199750e+02
8.6317932e+02
8.7306262e+02
9.2645361e+02
8.7534583e+02
4.9805466e+02
4.1533145e+02
8.7835223e+02
8.6903082e+02
8.8206079e+02
3.6108517e+02
8.9510522e+02
8.8646576e+02
5.9285211e+02
8.7543158e+02
3.4126035e+02
8.9155597e+02
8.8437042e+02
8.2934320e+02
3.6111652e+02
6.9621783e+02
8.3037329e+02
8.9733429e+02
8.3261310e+02
8.3561200e+02
8.3934711e+02
9.0364722e+02
4.1538440e+02
8.5407617e+02
7.8451495e+02
6.7736615e+02
8.4381201e+02
8.0789398e+02
5.7866388e+02
8.5774854e+02
8.5880383e+02
4.8850967e+02
9.1242340e+02
4.9329898e+02
8.6107605e+02
8.4899396e+02
8.6408356e+02
4.1278769e+02
8.6780475e+02
8.5489520e+02
3.6024500e+02
8.8143335e+02
8.7223358e+02
5.8577667e+02
8.6135358e+02
3.4109341e+02
8.7735828e+02
6.8681213e+02
8.8318134e+02
3.6027832e+02
8.7039008e+02
8.1508264e+02
8.1610480e+02
8.1833771e+02
8.2134277e+02
8.8954639e+02
4.1284470e+02
8.4044934e+02
7.7289404e+02
8.2509668e+02
6.6801660e+02
7.9622546e+02
5.7165302e+02
8.2959247e+02
8.4349164e+02
8.9841235e+02
8.4453809e+02
4.8381940e+02
8.4680145e+02
4.8857898e+02
8.3481689e+02
8.4981262e+02
4.1027145e+02
8.5354938e+02
8.6777942e+02
8.4077179e+02
3.5941699e+02
8.5800519e+02
5.7873737e+02
3.4092996e+02
8.6316785e+02
8.4729199e+02
6.7743903e+02
8.6903937e+02
3.5945273e+02
8.5643140e+02
8.0081458e+02
8.0183002e+02
8.0405817e+02
8.7546045e+02
8.0707208e+02
4.1033319e+02
8.2684265e+02
7.8458600e+02
7.6130432e+02
8.1084772e+02
6.5870166e+02
5.6467999e+02
8.8442102e+02
8.2922681e+02
8.3026550e+02
8.1537775e+02
8.3252209e+02
4.8389554e+02
4.7916583e+02
8.3553943e+02
8.2064844e+02
4.0778314e+02
8.3929468e+02
8.5414398e+02
3.5860123e+02
8.2666107e+02
8.4378082e+02
5.7173523e+02
8.4898492e+02
3.4076990e+02
8.3324725e+02
6.6809973e+02
8.5490887e+02
3.5863980e+02
8.4249506e+02
8.6138995e+02
7.8653931e+02
7.8754901e+02
7.8977460e+02
4.0785028e+02
7.7297675e+02
7.9279999e+02
8.1325647e+02
7.4974670e+02
6.4942242e+02
7.9660046e+02
8.7045032e+02
8.1495404e+02
5.5774579e+02
8.1598608e+02
8.1823798e+02
4.7924951e+02
8.0116827e+02
4.7454990e+02
8.2126410e+02
8.4052771e+02
8.0648895e+02
8.2504077e+02
4.0532318e+02
5.6477142e+02
8.2956055e+02
3.5779776e+02
8.1256354e+02
8.3480994e+02
3.4061316e+02
8.1922003e+02
6.5879541e+02
8.4079022e+02
3.5783954e+02
8.2858185e+02
8.4733551e+02
7.7225696e+02
4.0539636e+02
7.7326202e+02
7.6139868e+02
7.7548712e+02
7.9969159e+02
7.7852667e+02
7.3822241e+02
8.5650098e+02
6.4018018e+02
8.0067340e+02
7.8235516e+02
8.0169983e+02
5.5085175e+02
8.0394928e+02
4.7464188e+02
8.0698676e+02
4.6997250e+02
7.8696423e+02
8.2693134e+02
8.1078790e+02
4.0289200e+02
7.9233893e+02
8.1534485e+02
5.5784723e+02
3.5700659e+02
7.9847968e+02
8.2064319e+02
3.4045969e+02
8.0521100e+02
6.4952734e+02
8.2668396e+02
3.5705200e+02
8.3329773e+02
8.1469257e+02
7.4985309e+02
4.0297192e+02
7.5796759e+02
7.5896912e+02
8.4257391e+02
7.6119592e+02
7.8614844e+02
7.2673248e+02
7.6425232e+02
6.3097607e+02
7.8638489e+02
7.8740680e+02
7.8965594e+02
4.7007361e+02
5.4399896e+02
7.6811200e+02
7.9270752e+02
8.1335565e+02
4.6543460e+02
7.7276605e+02
7.9653625e+02
4.0048999e+02
7.7819873e+02
5.5096387e+02
8.0113379e+02
3.5622778e+02
8.0648511e+02
7.8441003e+02
3.4030945e+02
6.4029675e+02
8.1259058e+02
7.9122076e+02
3.5627722e+02
8.1927728e+02
8.0082806e+02
7.3834119e+02
4.0057739e+02
8.2866992e+02
7.4367151e+02
7.4467041e+02
7.4690118e+02
7.7262793e+02
7.1527820e+02
7.7208856e+02
7.7310706e+02
6.2181152e+02
7.4997723e+02
7.7535803e+02
4.6554568e+02
5.3718890e+02
7.5387134e+02
7.9980133e+02
7.7842639e+02
4.6093713e+02
7.8228601e+02
7.5857410e+02
3.9811761e+02
5.4412274e+02
7.8692786e+02
7.6406891e+02
3.5546136e+02
7.9233618e+02
7.7035529e+02
3.4016238e+02
6.3110516e+02
7.9851074e+02
7.7725012e+02
3.5551526e+02
8.0527502e+02
7.8698926e+02
7.2686432e+02
3.9821326e+02
8.1478998e+02
7.2936871e+02
7.3036615e+02
7.5913068e+02
7.0386084e+02
7.5778442e+02
7.3260309e+02
7.5880054e+02
6.1268793e+02
7.6105573e+02
4.6105917e+02
7.3570154e+02
7.8626923e+02
5.3042285e+02
7.6414368e+02
7.3963342e+02
4.5648117e+02
7.6803741e+02
7.4438873e+02
3.9577530e+02
7.7272736e+02
5.3732532e+02
7.4995001e+02
3.5470737e+02
7.7819684e+02
7.5631616e+02
3.4001843e+02
6.2195410e+02
7.8444507e+02
7.6329993e+02
3.5476620e+02
7.9129169e+02
7.1542383e+02
7.7317725e+02
3.9588004e+02
8.0093518e+02
7.4347253e+02
7.1505939e+02
7.1605646e+02
7.4565765e+02
7.4448743e+02
6.9248193e+02
7.1830170e+02
7.4674896e+02
4.5661523e+02
6.0360687e+02
7.7276019e+02
7.2142548e+02
7.4985938e+02
5.2370227e+02
7.2539862e+02
7.5379071e+02
4.5206766e+02
7.3021045e+02
7.5853259e+02
5.3057300e+02
3.9346344e+02
7.3584259e+02
7.6406757e+02
3.5396582e+02
6.1284503e+02
7.4229327e+02
7.7039423e+02
3.3987759e+02
7.4937109e+02
7.7732812e+02
3.5403015e+02
7.0402130e+02
7.5939319e+02
7.8710657e+02
3.9357825e+02
7.2915289e+02
7.3016760e+02
7.5927521e+02
7.3220978e+02
7.3243793e+02
7.0074371e+02
4.5221497e+02
6.8114301e+02
7.0174139e+02
5.9456989e+02
7.0399731e+02
7.3557373e+02
5.1702863e+02
7.0714929e+02
7.3954608e+02
4.4769769e+02
7.1116724e+02
7.4434399e+02
5.2386743e+02
3.9118250e+02
7.1603973e+02
7.4994897e+02
3.5323672e+02
7.2174731e+02
6.0377972e+02
7.5635889e+02
3.3973981e+02
7.2828754e+02
7.6338525e+02
3.5330713e+02
7.3546460e+02
6.9265826e+02
7.7330530e+02
3.9130847e+02
7.4563824e+02
7.1482562e+02
7.1584125e+02
7.4581519e+02
7.1812268e+02
4.4785962e+02
7.1878809e+02
6.6984564e+02
6.8642181e+02
7.2128693e+02
5.8557880e+02
6.8742120e+02
6.8969000e+02
5.1040350e+02
7.2530396e+02
6.9287329e+02
4.4337231e+02
6.9693976e+02
7.3016199e+02
5.1721033e+02
3.8893289e+02
7.0187708e+02
7.3584161e+02
3.5252014e+02
7.0766486e+02
5.9475995e+02
7.4233990e+02
3.3960504e+02
7.1429987e+02
7.4946399e+02
3.5259732e+02
7.2158148e+02
6.8133643e+02
7.5953259e+02
3.8907123e+02
7.3191382e+02
7.3238116e+02
7.0049060e+02
7.0150836e+02
7.0380328e+02
4.4355048e+02
7.0539368e+02
6.5859167e+02
7.0699902e+02
5.7663525e+02
6.7209369e+02
6.7309589e+02
5.0382852e+02
7.1106451e+02
6.7538007e+02
6.7859772e+02
4.3909268e+02
7.1598706e+02
5.1060345e+02
6.8271643e+02
3.8671503e+02
7.2174615e+02
6.8772308e+02
3.5181610e+02
5.8578766e+02
6.9359601e+02
7.2833813e+02
3.3947330e+02
7.0033112e+02
7.3556543e+02
3.5190079e+02
6.7005768e+02
7.0772296e+02
7.4578973e+02
3.8686716e+02
7.1822131e+02
7.1897437e+02
6.8614795e+02
6.8716901e+02
6.8947986e+02
4.3928882e+02
6.9202783e+02
6.9271033e+02
6.4738293e+02
5.6774133e+02
6.5775958e+02
6.9682812e+02
6.5876569e+02
4.9730539e+02
6.6106757e+02
4.3485992e+02
6.6432288e+02
7.0181964e+02
5.0404858e+02
6.6849786e+02
3.8452939e+02
7.0766333e+02
6.7357837e+02
3.5112460e+02
5.7686481e+02
7.1435443e+02
6.7954163e+02
3.3934454e+02
7.2169073e+02
6.8638245e+02
3.5121765e+02
6.5882385e+02
6.9389038e+02
7.3207825e+02
3.8469684e+02
7.0456244e+02
7.0559595e+02
6.7179767e+02
6.7282312e+02
6.7515240e+02
4.3507602e+02
6.7842096e+02
6.7869183e+02
6.3622156e+02
5.5889905e+02
6.8259509e+02
4.9083588e+02
6.4341956e+02
6.4443073e+02
6.4675281e+02
6.8766034e+02
4.9754773e+02
4.3067517e+02
6.5004907e+02
3.8237640e+02
6.9359381e+02
6.5428442e+02
6.5944360e+02
3.5044568e+02
5.6799353e+02
7.0038983e+02
6.6550256e+02
3.3921878e+02
7.0784106e+02
6.7245496e+02
6.4763715e+02
3.5054807e+02
7.1839960e+02
6.8008502e+02
3.8256091e+02
6.9224719e+02
6.9093878e+02
6.5743976e+02
6.5847076e+02
6.6082111e+02
4.3091354e+02
6.6413110e+02
6.6538721e+02
6.2510968e+02
6.6836584e+02
5.5011047e+02
4.8442191e+02
6.2907373e+02
6.7350970e+02
4.9110294e+02
6.3009106e+02
6.3243597e+02
4.2653970e+02
6.3577667e+02
6.7953845e+02
3.8025650e+02
6.4007666e+02
5.5917615e+02
3.4977939e+02
6.8644531e+02
6.4531952e+02
6.5147974e+02
3.3909598e+02
6.9401776e+02
6.3649969e+02
6.5854993e+02
3.4989215e+02
7.0475543e+02
6.6630853e+02
3.8046002e+02
6.7892957e+02
6.7735236e+02
6.4307422e+02
6.4411200e+02
6.4648602e+02
4.2680283e+02
6.4984113e+02
6.5211560e+02
6.5414081e+02
6.1404974e+02
5.4137805e+02
4.7806543e+02
6.5936841e+02
4.8471637e+02
6.1472217e+02
6.1574695e+02
4.2245474e+02
6.1811725e+02
6.6549811e+02
6.2150598e+02
3.7817020e+02
6.2587506e+02
5.5041510e+02
6.7252209e+02
3.4912573e+02
6.3120691e+02
3.3897617e+02
6.3747430e+02
6.8022223e+02
6.2541388e+02
6.4466864e+02
3.4925006e+02
6.9114752e+02
6.5256250e+02
3.7839484e+02
6.6564459e+02
6.6380518e+02
6.2870105e+02
6.2974683e+02
6.3214728e+02
4.2274536e+02
6.3555115e+02
6.3992041e+02
6.3887866e+02
6.0304425e+02
5.3270422e+02
6.4523712e+02
4.7839023e+02
4.7176855e+02
6.0036505e+02
6.0139844e+02
4.1842163e+02
6.0379688e+02
6.5147382e+02
6.0723743e+02
3.7611792e+02
6.1168030e+02
5.4171289e+02
6.5862146e+02
3.4848480e+02
6.1710651e+02
6.6645605e+02
3.3885931e+02
6.2348730e+02
6.1438220e+02
6.3081262e+02
6.7757782e+02
3.4862189e+02
6.3884869e+02
3.7636600e+02
6.5239386e+02
6.1432013e+02
6.5029950e+02
6.1537518e+02
4.1874271e+02
6.1780487e+02
6.2126147e+02
6.2570520e+02
6.2567853e+02
5.9209595e+02
5.2409161e+02
6.3111664e+02
4.7212689e+02
4.6553348e+02
4.1444174e+02
5.8600250e+02
6.3746667e+02
5.8704578e+02
5.8947516e+02
3.7410025e+02
5.9297137e+02
5.3307227e+02
6.4474475e+02
5.9749286e+02
3.4785666e+02
6.0301929e+02
6.5272083e+02
3.3874548e+02
6.0951996e+02
6.0340741e+02
6.6404834e+02
3.4800781e+02
6.1698340e+02
6.3917920e+02
3.7437415e+02
6.2516907e+02
5.9993146e+02
6.0099707e+02
6.3683771e+02
6.0345898e+02
4.1479645e+02
6.0697241e+02
6.1149567e+02
6.1251715e+02
5.8120789e+02
6.1700781e+02
4.6592877e+02
5.1554315e+02
4.5936258e+02
6.2347778e+02
4.1051660e+02
5.7163464e+02
5.7268909e+02
5.7515234e+02
3.7211777e+02
5.2449597e+02
6.3089349e+02
5.7870825e+02
5.8331348e+02
3.4724142e+02
6.3901843e+02
5.8894611e+02
3.3863464e+02
5.9249237e+02
5.9557355e+02
6.5056128e+02
3.4740790e+02
6.0318256e+02
6.2600238e+02
3.7241986e+02
6.1152576e+02
5.8553485e+02
5.8661237e+02
5.8910968e+02
4.1090811e+02
6.2342249e+02
5.9268427e+02
5.9729248e+02
5.9939703e+02
5.7038336e+02
6.0291162e+02
4.5979831e+02
5.0706198e+02
4.5325845e+02
6.0950854e+02
4.0664780e+02
5.5726178e+02
5.5832867e+02
5.1598706e+02
3.7017111e+02
5.6082874e+02
6.1706934e+02
5.6444855e+02
3.4663922e+02
5.6914270e+02
6.2535089e+02
5.7488788e+02
3.3852682e+02
5.8164008e+02
5.8164935e+02
6.3711914e+02
3.4682224e+02
5.8941205e+02
6.1286560e+02
3.7050369e+02
5.9792108e+02
5.7113025e+02
5.7222107e+02
4.0707919e+02
5.7475696e+02
6.1005682e+02
5.7839740e+02
5.8309637e+02
5.8882922e+02
4.5373807e+02
5.8632068e+02
5.5962592e+02
4.9865146e+02
4.4722391e+02
5.9556042e+02
4.0283716e+02
5.0754861e+02
5.4288409e+02
6.0327423e+02
5.4396478e+02
3.6826108e+02
5.4650464e+02
5.5019263e+02
3.4605029e+02
6.1172040e+02
5.5498132e+02
5.6084570e+02
5.7085376e+02
3.3842206e+02
6.2372443e+02
5.6774878e+02
3.4625079e+02
5.7567365e+02
5.9977100e+02
3.6862610e+02
5.8435742e+02
5.5671735e+02
5.5782294e+02
4.0331119e+02
5.6040100e+02
5.9674390e+02
5.6411224e+02
5.6890814e+02
5.7476178e+02
4.4775055e+02
5.7329102e+02
5.4893958e+02
4.9031534e+02
4.4126202e+02
5.8163513e+02
3.9908667e+02
4.9918381e+02
5.8951025e+02
5.2850201e+02
3.6638858e+02
5.2959778e+02
5.3218054e+02
5.3594104e+02
3.4547491e+02
5.9812933e+02
5.4082990e+02
5.6013672e+02
3.3832037e+02
5.4682043e+02
6.1038000e+02
5.5387335e+02
3.4569354e+02
5.8672095e+02
5.6196942e+02
3.6678738e+02
5.7083752e+02
5.4229584e+02
5.4341779e+02
5.4604175e+02
3.9960538e+02
5.4982922e+02
5.8348718e+02
5.5472876e+02
5.6071088e+02
4.4183820e+02
5.6031128e+02
5.3832874e+02
4.8205786e+02
5.6773462e+02
4.3537631e+02
3.9539865e+02
4.9089584e+02
5.7577972e+02
3.6455484e+02
5.1411603e+02
5.1522821e+02
5.1785681e+02
5.8458044e+02
3.4491354e+02
5.2169427e+02
5.2668921e+02
5.4949261e+02
3.3822186e+02
5.3281323e+02
5.9708893e+02
5.4002454e+02
3.4515030e+02
5.7371796e+02
5.4830157e+02
3.6498764e+02
5.5736420e+02
5.2786523e+02
5.2900531e+02
5.3167938e+02
3.9596283e+02
5.3554895e+02
5.7029059e+02
5.4055933e+02
5.4667816e+02
4.3600339e+02
5.4738501e+02
5.2779834e+02
4.7388373e+02
5.5386108e+02
4.2957074e+02
3.9177582e+02
4.8268802e+02
5.6208533e+02
3.6276126e+02
4.9972681e+02
5.0085663e+02
5.7107660e+02
5.0353394e+02
3.4436679e+02
5.0745282e+02
5.3892493e+02
5.1255988e+02
3.3812650e+02
5.8385443e+02
5.1882495e+02
3.4462070e+02
5.2620380e+02
5.6076471e+02
5.3467224e+02
3.6322672e+02
5.4394067e+02
5.1342499e+02
5.1458508e+02
3.9238440e+02
5.1731372e+02
5.2127197e+02
5.5715839e+02
5.2640112e+02
5.3266553e+02
4.3024823e+02
5.3451630e+02
5.1735388e+02
5.4001709e+02
4.6579828e+02
4.2384982e+02
4.7456354e+02
5.4842999e+02
3.8822141e+02
3.6100967e+02
5.5762109e+02
4.8533530e+02
4.8648383e+02
4.8921259e+02
3.4383545e+02
5.2843756e+02
4.9321722e+02
4.9844247e+02
5.7068011e+02
3.3803436e+02
5.0485663e+02
3.4410419e+02
5.1241272e+02
5.4786426e+02
5.2108386e+02
3.6150406e+02
5.3057019e+02
4.9897427e+02
5.0015649e+02
3.8887045e+02
5.0294492e+02
5.0699899e+02
5.1225568e+02
5.4409534e+02
5.1867529e+02
4.2457449e+02
5.2170953e+02
5.2620551e+02
5.0700168e+02
4.5780768e+02
4.1821896e+02
4.6652542e+02
5.3481720e+02
3.8473932e+02
3.5930246e+02
5.4421771e+02
4.7094263e+02
4.7211081e+02
3.4332059e+02
4.7489340e+02
5.1803418e+02
4.7898798e+02
5.5756989e+02
4.8433765e+02
3.3794550e+02
4.9090912e+02
3.4360001e+02
5.3501959e+02
4.9865283e+02
3.5981866e+02
5.0753894e+02
4.8451202e+02
4.8571878e+02
5.1725653e+02
4.8857281e+02
3.8542075e+02
4.9273090e+02
4.9812479e+02
5.3110669e+02
5.0471014e+02
4.1898355e+02
5.1242981e+02
5.0896979e+02
4.9674890e+02
4.4991907e+02
4.1268439e+02
4.5857648e+02
5.2125079e+02
3.8133429e+02
3.5764258e+02
5.3087048e+02
4.5655038e+02
5.0771851e+02
3.4282367e+02
4.5773889e+02
4.6057727e+02
5.4452783e+02
4.6476562e+02
3.3785999e+02
4.7024582e+02
4.7698331e+02
5.2223413e+02
3.4310693e+02
4.8492569e+02
3.5816882e+02
4.9404001e+02
4.7003683e+02
4.7127100e+02
5.0400354e+02
3.8203433e+02
4.7419733e+02
4.7846863e+02
4.8401056e+02
5.1819818e+02
4.9077322e+02
4.1347592e+02
4.9869391e+02
4.9630283e+02
4.8660385e+02
4.4214078e+02
4.5071899e+02
4.0725369e+02
5.0773526e+02
3.7801212e+02
5.1758398e+02
3.5603384e+02
4.9749423e+02
3.4234665e+02
4.4216061e+02
4.4336966e+02
4.4626511e+02
5.3155859e+02
4.5055072e+02
3.3777789e+02
4.5616748e+02
5.0951129e+02
4.6307983e+02
3.4262341e+02
4.7123276e+02
3.5655209e+02
4.8058981e+02
4.5554697e+02
4.5681183e+02
4.5981830e+02
3.7870923e+02
4.9081558e+02
4.6421332e+02
4.6991544e+02
5.0537650e+02
4.7686823e+02
4.0805133e+02
4.8500238e+02
4.8371506e+02
4.7657611e+02
4.3448267e+02
4.4295471e+02
4.9427567e+02
4.0193585e+02
3.7478000e+02
5.0436343e+02
3.5448114e+02
4.8736465e+02
3.4189191e+02
4.2777579e+02
5.1866699e+02
4.2900510e+02
4.3195804e+02
4.3634372e+02
3.3769931e+02
4.4210291e+02
4.9685495e+02
4.4919946e+02
3.4214725e+02
4.5757556e+02
3.5496500e+02
4.6719128e+02
4.4104016e+02
4.4233972e+02
4.4543546e+02
3.7544220e+02
4.7769739e+02
4.4996637e+02
4.5584241e+02
4.9264883e+02
4.6299939e+02
4.0270822e+02
4.7136053e+02
4.7121384e+02
4.6667682e+02
4.2695639e+02
4.3528442e+02
4.8087781e+02
3.9674176e+02
3.7164673e+02
4.9121460e+02
3.5299051e+02
4.7733273e+02
3.4146271e+02
5.0585831e+02
4.1339908e+02
4.1464771e+02
4.1765741e+02
3.3762436e+02
4.2214520e+02
4.8426904e+02
4.2805243e+02
3.4167566e+02
4.3534271e+02
4.4395566e+02
3.5340274e+02
4.5384747e+02
4.2651367e+02
4.2785272e+02
3.7222833e+02
4.3104849e+02
4.3572928e+02
4.6465411e+02
4.4179480e+02
4.4917175e+02
3.9744339e+02
4.8002350e+02
4.5777444e+02
4.5880750e+02
4.5691904e+02
4.2770770e+02
4.1957571e+02
4.6754834e+02
3.9168448e+02
3.6862320e+02
4.7814392e+02
3.5156961e+02
4.6740076e+02
3.4106305e+02
4.9313828e+02
3.9903436e+02
4.0030042e+02
4.0336472e+02
3.3755322e+02
4.0795578e+02
4.7175778e+02
4.1401627e+02
3.4120508e+02
4.2151025e+02
4.3037479e+02
3.5185910e+02
4.4056192e+02
4.1196408e+02
4.1334836e+02
4.1665701e+02
3.6906085e+02
4.2150388e+02
4.5169162e+02
4.2777664e+02
4.3539102e+02
3.9225171e+02
4.6750970e+02
4.4425113e+02
4.4650546e+02
4.4731793e+02
4.2022260e+02
4.5429480e+02
4.1235718e+02
3.8677985e+02
3.6572260e+02
4.6515875e+02
3.5022800e+02
4.5757019e+02
4.8051306e+02
3.4069806e+02
3.8468622e+02
3.8596664e+02
3.3748615e+02
3.8908173e+02
4.5932571e+02
3.9377606e+02
3.9999478e+02
3.4073096e+02
4.0770288e+02
3.5032602e+02
4.1683487e+02
4.2733850e+02
3.9738730e+02
3.9882385e+02
4.0226053e+02
3.6593051e+02
4.0729233e+02
4.3881644e+02
4.1379248e+02
4.2166379e+02
3.8712549e+02
4.5511795e+02
4.3079855e+02
4.1282510e+02
4.3431845e+02
4.4112573e+02
4.3789139e+02
4.0532022e+02
3.8204684e+02
4.5226715e+02
3.6296103e+02
4.4784137e+02
3.4897733e+02
4.6798926e+02
3.4037405e+02
3.7035995e+02
3.7165042e+02
3.3742355e+02
4.4697748e+02
3.7481042e+02
3.7960696e+02
3.8598862e+02
3.4024783e+02
3.9392181e+02
3.4879340e+02
4.0333856e+02
3.8277856e+02
4.1418188e+02
3.8427582e+02
3.8785849e+02
3.6282529e+02
3.9309695e+02
4.2603601e+02
3.9984747e+02
4.0799759e+02
3.8205411e+02
4.4286005e+02
4.1742575e+02
4.0550876e+02
4.2805069e+02
4.2225858e+02
4.2866016e+02
3.9848792e+02
3.7750803e+02
4.3947818e+02
3.6035788e+02
4.3821310e+02
3.4783176e+02
4.5557404e+02
3.4009885e+02
4.3471820e+02
3.3736606e+02
3.5606155e+02
3.5735605e+02
3.6055304e+02
3.6544965e+02
3.3974908e+02
3.7199893e+02
3.8016904e+02
3.4724881e+02
3.8988925e+02
3.6813226e+02
3.6970044e+02
4.0109778e+02
3.7345029e+02
3.5972989e+02
3.7892062e+02
3.8594751e+02
4.1335895e+02
3.9440082e+02
3.7702325e+02
4.3074933e+02
4.0414282e+02
3.9826392e+02
4.1508041e+02
4.1033954e+02
4.1964841e+02
3.9188742e+02
3.7319012e+02
4.2680188e+02
3.5793616e+02
4.2868234e+02
3.4680835e+02
4.4327499e+02
3.3988196e+02
4.2255316e+02
3.3731470e+02
3.4179736e+02
3.4308817e+02
3.4631201e+02
3.5130588e+02
3.3922708e+02
3.5802789e+02
3.6644788e+02
3.4567731e+02
3.7649203e+02
3.5344226e+02
3.5509348e+02
3.5662549e+02
3.5903537e+02
3.8809338e+02
3.6476642e+02
3.7209918e+02
4.0079532e+02
3.8088281e+02
3.7201468e+02
3.9096094e+02
4.1880075e+02
3.9107745e+02
4.0222672e+02
3.9857657e+02
4.1088394e+02
3.8555020e+02
4.1424933e+02
3.6912436e+02
3.5572281e+02
4.1924371e+02
3.4592722e+02
4.3110040e+02
3.3973483e+02
4.1048822e+02
3.3727103e+02
3.2757373e+02
3.2885129e+02
3.3208997e+02
3.3717822e+02
3.3867316e+02
3.4407928e+02
3.5276376e+02
3.4406146e+02
3.6315408e+02
3.3870175e+02
3.4045041e+02
3.4461322e+02
3.5348926e+02
3.7517792e+02
3.5063794e+02
3.5830978e+02
3.8835696e+02
3.6745383e+02
3.6700546e+02
3.7789240e+02
4.0703101e+02
3.8393195e+02
3.8950256e+02
3.8698663e+02
4.0239847e+02
3.7951248e+02
4.0183258e+02
3.6534662e+02
4.0988928e+02
3.5374902e+02
4.1905902e+02
3.4521173e+02
3.3967105e+02
3.9852954e+02
3.3723734e+02
3.1339627e+02
3.1464932e+02
3.1788971e+02
3.3807794e+02
3.2307074e+02
3.3015936e+02
3.3912537e+02
3.4238138e+02
3.4988602e+02
3.2390356e+02
3.2576651e+02
3.5029456e+02
3.3018350e+02
3.6236356e+02
3.3653931e+02
3.4458737e+02
3.7605783e+02
3.6196780e+02
3.5412512e+02
3.6495041e+02
3.9545844e+02
3.7680539e+02
3.7692191e+02
3.7558817e+02
3.9422760e+02
3.7381522e+02
3.8956479e+02
3.6189740e+02
4.0060788e+02
3.5204990e+02
4.0716031e+02
3.4468845e+02
3.3970642e+02
3.8668405e+02
3.3721713e+02
2.9926877e+02
3.0048486e+02
3.0371414e+02
3.3743170e+02
3.0898944e+02
3.1627823e+02
3.4061530e+02
3.2554599e+02
3.3670297e+02
3.0904053e+02
3.1103717e+02
3.1574631e+02
3.4701108e+02
3.2247534e+02
3.4966617e+02
3.3094095e+02
3.4090887e+02
3.5686917e+02
3.6391440e+02
3.5214926e+02
3.8410297e+02
3.6967090e+02
3.6449976e+02
3.6440091e+02
3.8641064e+02
3.7745993e+02
3.6850378e+02
3.5882138e+02
3.9138510e+02
3.5066409e+02
3.9541434e+02
3.4438675e+02
3.3985895e+02
3.7495938e+02
3.3721530e+02
2.8519171e+02
2.8635809e+02
2.8956625e+02
3.3672528e+02
2.9494336e+02
3.0245126e+02
3.3874048e+02
3.1204553e+02
3.2362640e+02
2.9410559e+02
2.9625809e+02
3.4360577e+02
3.0130240e+02
3.0845175e+02
3.3710648e+02
3.1738058e+02
3.2781839e+02
3.5167261e+02
3.5194608e+02
3.3950415e+02
3.7298553e+02
3.6249670e+02
3.5225180e+02
3.5344556e+02
3.6553284e+02
3.7898981e+02
3.6362692e+02
3.5616617e+02
3.8220306e+02
3.4963251e+02
3.8383176e+02
3.4433792e+02
3.4014847e+02
3.6336411e+02
3.3723856e+02
2.7115997e+02
2.7226532e+02
3.3595087e+02
2.7544897e+02
2.8094577e+02
2.8870129e+02
3.3673459e+02
2.9865259e+02
2.7909229e+02
2.8142563e+02
3.1068585e+02
2.8685342e+02
3.4004446e+02
2.9447589e+02
3.2471112e+02
3.0391809e+02
3.1486847e+02
3.4633817e+02
3.4017517e+02
3.2703125e+02
3.6212741e+02
3.5524710e+02
3.4019434e+02
3.5379883e+02
3.4274277e+02
3.7200888e+02
3.5923517e+02
3.7304065e+02
3.5398016e+02
3.7242386e+02
3.4899625e+02
3.4457352e+02
3.5190814e+02
3.4059583e+02
3.3729565e+02
2.5716013e+02
3.3510358e+02
2.5819730e+02
2.6136536e+02
2.6701572e+02
2.7506104e+02
3.3457816e+02
2.8540717e+02
2.6399481e+02
2.6653696e+02
2.9792117e+02
3.3629437e+02
2.7240271e+02
2.8055722e+02
2.9056784e+02
3.1251392e+02
3.0207599e+02
3.4082523e+02
3.2862704e+02
3.1474799e+02
3.4788379e+02
3.5154883e+02
3.2834409e+02
3.4227335e+02
3.3231216e+02
3.6551086e+02
3.5537784e+02
3.6387442e+02
3.5230917e+02
3.6120236e+02
3.4879315e+02
3.4512256e+02
3.4060291e+02
3.4122116e+02
3.3739725e+02
3.3418283e+02
2.4316672e+02
2.4413687e+02
2.4731862e+02
2.5318005e+02
3.3225745e+02
2.6157599e+02
2.7236343e+02
2.4880785e+02
2.5159015e+02
2.5795569e+02
3.3232828e+02
2.8538443e+02
2.6670898e+02
2.7734830e+02
3.0055643e+02
2.8946121e+02
3.3509653e+02
3.1732941e+02
3.0267365e+02
3.4036911e+02
3.1671811e+02
3.4126715e+02
3.3097147e+02
3.2217075e+02
3.5953464e+02
3.5468027e+02
3.5209845e+02
3.5119131e+02
3.5017920e+02
3.4905280e+02
3.4600720e+02
3.2946179e+02
3.4204117e+02
3.3755518e+02
3.3319412e+02
2.2913811e+02
2.3005664e+02
2.3331259e+02
2.3947568e+02
3.2976849e+02
2.4830717e+02
2.5959235e+02
2.3352576e+02
2.3658398e+02
3.2812997e+02
2.4352103e+02
2.7314157e+02
2.5294991e+02
2.6428418e+02
2.8888840e+02
2.7704962e+02
3.2912418e+02
3.0631128e+02
2.9083032e+02
3.3267099e+02
3.0533365e+02
3.3129398e+02
3.1990735e+02
3.1233047e+02
3.5410974e+02
3.4543631e+02
3.4942834e+02
3.5064929e+02
3.3936630e+02
3.4978906e+02
3.4723648e+02
3.1850076e+02
3.4306451e+02
3.3778030e+02
3.3214996e+02
2.1501160e+02
2.1591655e+02
2.1935248e+02
2.2595186e+02
3.2712161e+02
2.3533379e+02
2.4718321e+02
2.1814087e+02
2.2151721e+02
3.2370163e+02
2.2911183e+02
2.6127295e+02
2.3930684e+02
2.5140968e+02
2.7756711e+02
3.2289807e+02
2.6487473e+02
2.7924481e+02
2.9560071e+02
3.2477039e+02
2.9420905e+02
3.2163171e+02
3.0909375e+02
3.0279559e+02
3.3612775e+02
3.4924902e+02
3.4737689e+02
3.2877548e+02
3.5068015e+02
3.5098996e+02
3.4879736e+02
3.0773907e+02
3.4428497e+02
3.3807867e+02
3.3107001e+02
2.0069897e+02
2.0166199e+02
2.0544618e+02
2.1267223e+02
3.2434598e+02
2.2275394e+02
2.0264038e+02
2.3524345e+02
2.0638722e+02
2.1474690e+02
3.1907291e+02
2.2581799e+02
2.4987225e+02
2.3877226e+02
2.6665521e+02
2.5298169e+02
3.1643787e+02
2.6795157e+02
2.8522189e+02
3.1667264e+02
2.8336502e+02
3.1226868e+02
2.9854233e+02
3.2675452e+02
2.9355875e+02
3.4493842e+02
3.4591855e+02
3.1841846e+02
3.5124121e+02
3.5260474e+02
3.5064328e+02
2.9720044e+02
3.4567206e+02
3.3844504e+02
3.2997882e+02
1.8608333e+02
1.8722366e+02
1.9160609e+02
3.2149329e+02
1.9971500e+02
2.1068237e+02
1.8700191e+02
1.9118819e+02
2.2389479e+02
2.0045235e+02
3.1431097e+02
2.1253596e+02
2.3904262e+02
2.2643654e+02
2.4143199e+02
3.0980774e+02
2.5621735e+02
2.5699722e+02
2.7519073e+02
3.0842307e+02
2.7282861e+02
3.0317343e+02
2.8826550e+02
3.1734219e+02
2.8459625e+02
3.4112259e+02
3.0830844e+02
3.4497482e+02
3.5223230e+02
3.5452762e+02
2.8691510e+02
3.5268039e+02
3.4715903e+02
3.3885318e+02
3.2890018e+02
1.7101929e+02
1.7252019e+02
1.7785091e+02
3.1863901e+02
1.8716933e+02
1.9924196e+02
1.7118803e+02
1.7590878e+02
2.1326396e+02
1.8626228e+02
3.0953073e+02
1.9952945e+02
2.2888960e+02
2.1448679e+02
2.3030795e+02
3.0313486e+02
2.4631503e+02
2.4644778e+02
2.6551031e+02
3.0012808e+02
2.6264069e+02
2.9428772e+02
2.7828220e+02
3.0795840e+02
2.7586142e+02
3.3768430e+02
2.9846378e+02
3.4439066e+02
3.5347403e+02
3.5658078e+02
2.7692331e+02
3.5475281e+02
3.4862970e+02
3.3924301e+02
3.2784744e+02
1.5533998e+02
1.5746552e+02
1.6420602e+02
3.1587946e+02
1.7512378e+02
1.8854527e+02
1.5514145e+02
1.6053050e+02
1.7221814e+02
3.0490356e+02
2.0346565e+02
1.8688062e+02
2.0302524e+02
2.1951060e+02
2.1971613e+02
2.9663010e+02
2.3700197e+02
2.3639867e+02
2.5616617e+02
2.9198288e+02
2.5287033e+02
2.8551877e+02
2.6863104e+02
2.9873505e+02
2.6727567e+02
2.8891739e+02
3.3441660e+02
3.4390372e+02
3.5468488e+02
3.5849808e+02
2.6728116e+02
3.5663226e+02
3.4990668e+02
3.3950797e+02
3.2680945e+02
1.3887590e+02
1.4198334e+02
3.1332474e+02
1.5069852e+02
1.6364095e+02
1.7866109e+02
1.3878378e+02
1.4502815e+02
3.0066220e+02
1.5836415e+02
1.9457602e+02
1.7467343e+02
1.9216080e+02
2.1098207e+02
2.9061108e+02
2.0978607e+02
2.2832196e+02
2.2698814e+02
2.4712587e+02
2.8430548e+02
2.4363986e+02
2.5939670e+02
2.7672961e+02
2.8990027e+02
2.7973618e+02
2.5871417e+02
3.3098145e+02
3.4310947e+02
3.5545883e+02
3.5992114e+02
2.5807138e+02
3.5801672e+02
3.5075018e+02
3.3948270e+02
3.2573779e+02
3.1108652e+02
1.2149149e+02
1.2602828e+02
1.3734142e+02
1.5271002e+02
1.2202478e+02
1.6956291e+02
1.2937529e+02
2.9710587e+02
1.4473543e+02
1.6296637e+02
1.8659509e+02
1.8198117e+02
2.0334698e+02
2.8552435e+02
2.0065819e+02
2.2031610e+02
2.1841095e+02
2.7758041e+02
2.3834750e+02
2.3516263e+02
2.5075748e+02
2.6773322e+02
2.8181839e+02
2.7105792e+02
2.4998660e+02
3.2686111e+02
3.4141962e+02
3.5526364e+02
2.4942216e+02
3.6041211e+02
3.5855975e+02
3.5086929e+02
3.3894931e+02
3.2453415e+02
3.0927844e+02
1.0314793e+02
1.0961486e+02
1.2409643e+02
1.4217717e+02
1.0479002e+02
1.1355659e+02
1.6105602e+02
1.3133421e+02
2.9460330e+02
1.5174095e+02
1.7940141e+02
1.7249925e+02
1.9660278e+02
1.9244933e+02
2.8197946e+02
2.1092213e+02
2.1304785e+02
2.7250421e+02
2.2779156e+02
2.2981224e+02
2.4306029e+02
2.5828970e+02
2.7505215e+02
2.6316006e+02
2.4080522e+02
3.2128436e+02
3.3805307e+02
3.5345728e+02
2.4154201e+02
3.5953104e+02
3.5792615e+02
3.4998325e+02
3.3764886e+02
3.2307901e+02
3.0802286e+02
8.3992279e+01
9.2843239e+01
1.1081751e+02
1.3165343e+02
8.7078476e+01
9.7589966e+01
2.9364117e+02
1.1808715e+02
1.5270482e+02
1.4082495e+02
1.7268741e+02
1.6356477e+02
1.8518158e+02
2.8077643e+02
1.9069383e+02
2.0480733e+02
2.0664862e+02
2.7006042e+02
2.2205807e+02
2.2160788e+02
2.3692317e+02
2.4814717e+02
2.7042236e+02
2.5656433e+02
2.3076738e+02
3.1320810e+02
3.3203870e+02
3.4943756e+02
2.3477997e+02
3.5693832e+02
3.5595944e+02
3.4788443e+02
3.3538242e+02
3.2125989e+02
3.0758215e+02
6.4470940e+01
7.5916321e+01
9.7183937e+01
6.9053345e+01
1.2046311e+02
8.1551064e+01
1.0479010e+02
2.9487015e+02
1.4375223e+02
1.2979527e+02
1.6591309e+02
1.5475685e+02
1.7865274e+02
2.8302597e+02
1.8544997e+02
2.0028294e+02
2.0139568e+02
2.7154810e+02
2.1865155e+02
2.1409142e+02
2.3332997e+02
2.3716096e+02
2.6913635e+02
2.5219521e+02
2.1935687e+02
3.0134720e+02
3.2249591e+02
2.2972762e+02
3.4277145e+02
3.5274918e+02
3.5277777e+02
3.4469250e+02
3.3205872e+02
3.1926645e+02
3.0846088e+02
4.5433693e+01
5.9127399e+01
8.2694885e+01
5.1161659e+01
6.5595413e+01
1.0768876e+02
9.1058182e+01
2.9944232e+02
1.1792937e+02
1.3316386e+02
1.4526735e+02
1.5814261e+02
1.7228055e+02
2.9012222e+02
1.8053851e+02
1.9726242e+02
1.9767067e+02
2.7871878e+02
2.1825603e+02
2.0823845e+02
2.3363390e+02
2.7283932e+02
2.2566797e+02
2.5151935e+02
2.0613094e+02
2.8462347e+02
3.0904272e+02
2.2735922e+02
3.3384723e+02
3.4738708e+02
3.4937527e+02
3.4084076e+02
3.2828424e+02
3.1773257e+02
3.1231873e+02
2.8170643e+01
4.2846333e+01
6.6811325e+01
3.4242706e+01
4.9960800e+01
7.6359398e+01
3.0890244e+02
9.2462234e+01
1.0428205e+02
1.1979757e+02
1.3393774e+02
1.4802948e+02
3.0406381e+02
1.6485851e+02
1.7483441e+02
1.9504788e+02
1.9603645e+02
2.9353714e+02
2.2110486e+02
2.0598563e+02
2.3932930e+02
2.8375427e+02
2.1552281e+02
2.5663480e+02
1.9168085e+02
2.6363675e+02
2.9269522e+02
2.2916745e+02
3.2343274e+02
3.4243161e+02
3.4648849e+02
3.3872433e+02
3.2549600e+02
3.1973032e+02
3.2156708e+02
1.4292717e+01
2.7538738e+01
1.9560465e+01
4.9415821e+01
3.4980022e+01
6.0226917e+01
3.2649420e+02
7.4422722e+01
8.8034790e+01
1.0281793e+02
1.1949805e+02
1.3383458e+02
1.5455980e+02
3.2642819e+02
1.6602316e+02
1.9154744e+02
1.9534000e+02
3.1768066e+02
2.2641919e+02
2.1170854e+02
2.5148936e+02
3.0462057e+02
2.1251866e+02
2.7014212e+02
1.7944905e+02
2.4352562e+02
2.3744321e+02
2.7593567e+02
3.0882303e+02
3.3657278e+02
3.5059250e+02
3.4143292e+02
3.3096936e+02
3.3014209e+02
3.4475659e+02
5.3001838e+00
1.4113170e+01
8.7573071e+00
2.1164133e+01
3.1480343e+01
3.5415308e+02
4.2785843e+01
5.4041763e+01
6.9017990e+01
8.1500694e+01
1.0104968e+02
1.1376881e+02
3.5652982e+02
1.3911061e+02
1.5053795e+02
1.8295845e+02
3.5133606e+02
1.9152718e+02
2.3015350e+02
2.2736102e+02
2.7052441e+02
3.3865625e+02
2.3499490e+02
2.9606873e+02
1.8209862e+02
2.5606979e+02
2.3177068e+02
2.5003818e+02
2.7729700e+02
3.2410889e+02
3.6878595e+02
3.7296503e+02
3.5214053e+02
3.7126071e+02
3.8563696e+02
3.1761501e+00
1.3868347e+00
9.7059603e+00
4.4538021e+00
2.5404131e+01
3.8602328e+02
1.5012789e+01
4.8007023e+01
3.2094940e+01
7.7881035e+01
5.5850101e+01
1.1604359e+02
3.8769925e+02
8.7543327e+01
1.6394928e+02
1.2894281e+02
3.9157880e+02
2.2411122e+02
1.8246510e+02
2.9090802e+02
2.5515729e+02
3.8774542e+02
3.4316284e+02
3.1754599e+02
2.9754843e+02
2.3511577e+02
2.0089653e+02
1.8499126e+02
2.2453934e+02
3.0043378e+02
4.1796124e+02
5.2906097e+02
5.6275665e+02
4.6492020e+02
4.1199365e+02
1.8266864e+00
3.1800191e+00
6.5466374e-01
1.4362836e+00
4.1737943e+02
1.0508590e+01
5.8088236e+00
2.5867216e+01
1.7001251e+01
4.9500980e+01
3.7089024e+01
8.3711861e+01
4.4046744e+02
6.7682594e+01
1.3246677e+02
1.1124179e+02
4.4978232e+02
2.0210870e+02
1.7154120e+02
3.0741910e+02
2.5686453e+02
4.4885446e+02
4.3432578e+02
4.0034644e+02
3.9344168e+02
3.0968811e+02
1.5323001e+02
1.0659950e+02
1.8541341e+02
2.8202682e+02
4.1462900e+02
6.5929565e+02
1.2345653e+03
7.6315967e+02
1.9896642e+03
4.4751862e+02
1.1913796e+03
1.5190139e+03
9.1215897e-01
1.8393335e+00
3.5534887e+00
4.7541779e+02
8.0621851e+02
1.1245207e+01
1.2126541e+03
2.8587250e+01
4.2654727e+03
5.8393967e+01
4.6452213e+02
7.7178955e+02
1.1483344e+03
1.0521140e+02
2.9410803e+03
7.0185797e+02
4.5637430e+02
1.0192192e+03
8.9469727e+03
1.7697694e+02
2.0457362e+03
2.8935489e+02
5.7989473e+03
7.2243707e+02
8.4591168e+02
5.5757556e+02
1.2128677e+03
4.9443866e+02
2.0793740e+03
7.2859900e+02
8.2144000e+02
8.4007611e+02
6.2696399e+02
1.2621176e+03
5.8257941e+02
5.4450610e+02
7.1331451e+02
9.0495276e+02
2.9120871e+02
3.5117685e+02
3.8137442e+02
1.2875920e+02
1.3043698e+02
4.7832233e+01
VON_MISES_STRESS_BOTTOM_SURFACE 1 3567  float
1.8600267e+03
1.8412798e+03
1.9609572e+03
1.8830828e+03
1.8320553e+03
1.8203994e+03
1.8604767e+03
1.8631825e+03
1.8733784e+03
1.9685801e+03
1.7586793e+03
1.7892914e+03
1.9494528e+03
1.8264869e+03
1.9100063e+03
2.3777197e+03
1.7131871e+03
1.7289116e+03
2.1923772e+03
1.8374930e+03
1.9850186e+03
1.7496897e+03
3.1797163e+03
1.6697073e+03
1.8043414e+03
1.7391001e+03
2.3268513e+03
1.6732094e+03
1.8921443e+03
1.6760128e+03
1.6783167e+03
1.6569790e+03
1.6546641e+03
1.7327926e+03
1.6263383e+03
1.6374913e+03
1.6231671e+03
1.4892119e+03
1.6161250e+03
1.5431382e+03
1.5962448e+03
1.3483230e+03
1.5929836e+03
4.0125244e+02
1.5856882e+03
1.4952676e+03
6.3945422e+02
1.5805009e+03
1.3389871e+03
1.5466531e+03
8.4425580e+02
1.5701053e+03
1.0100568e+03
1.5498502e+03
1.3720576e+03
1.4795383e+03
4.4320819e+02
1.5493650e+03
5.2452802e+02
1.1597688e+03
1.5444296e+03
1.5168623e+03
1.5347041e+03
7.5166302e+02
1.4074003e+03
1.5191029e+03
9.6412897e+02
1.2796686e+03
1.4744403e+03
1.4969709e+03
1.1462920e+03
1.9195243e+03
1.5176765e+03
1.5657747e+03
1.5139225e+03
1.3754202e+03
1.3606493e+03
1.4338187e+03
1.5064652e+03
1.4714402e+03
1.2792079e+03
1.2862595e+03
1.4955458e+03
1.3239880e+03
1.4815787e+03
1.4109045e+03
3.4577451e+03
1.4901279e+03
1.3655247e+03
1.4493364e+03
1.4877021e+03
2.0660344e+03
2.2530825e+03
1.9230847e+03
1.4827980e+03
1.3897689e+03
1.7434301e+03
1.3976758e+03
1.7188643e+03
1.4669271e+03
1.3797974e+03
1.3793210e+03
1.0490555e+03
1.5003892e+03
1.4758983e+03
1.0527194e+03
1.4689062e+03
1.4391694e+03
1.0606821e+03
1.2950157e+03
1.4175815e+03
7.7480670e+02
1.3891882e+03
1.4677305e+03
1.4248186e+03
7.8449200e+02
1.2975992e+03
1.4557115e+03
1.0471785e+03
7.9981360e+02
1.1844832e+03
1.4658922e+03
1.4646340e+03
1.4619856e+03
5.3405200e+02
1.3459745e+03
1.4600129e+03
8.1028662e+02
1.0024725e+03
5.5274524e+02
1.2010045e+03
1.4462622e+03
5.7669830e+02
1.1020823e+03
1.4582281e+03
1.4546832e+03
1.4524125e+03
8.0109515e+02
5.9973853e+02
9.5037726e+02
1.4551891e+03
3.1629614e+02
1.3394001e+03
1.4540891e+03
3.5118045e+02
1.1574897e+03
3.8874747e+02
1.0490389e+03
6.0971027e+02
7.7756665e+02
1.4441488e+03
4.2555780e+02
9.0781622e+02
1.4710771e+03
1.4438109e+03
1.4594679e+03
1.4507721e+03
1.4429403e+03
1.4556759e+03
1.5767876e+02
1.3426219e+03
2.1723421e+02
1.1409835e+03
6.0603802e+02
4.5011963e+02
7.5034790e+02
2.7130933e+02
1.0176324e+03
1.4415114e+03
1.4497550e+03
3.2101007e+02
8.7645410e+02
1.4401261e+03
4.6126273e+02
5.9385779e+02
1.4775558e+03
1.8926860e+02
1.3470303e+03
1.4626156e+03
3.5751385e+02
2.4158556e+02
7.2595557e+02
1.1355170e+03
2.8707901e+02
9.9885107e+02
1.4396212e+03
1.4242056e+03
1.4523877e+03
1.4245499e+03
4.6186267e+02
8.5408002e+02
3.3290765e+02
1.4249965e+03
3.7999646e+02
5.7867035e+02
1.4252295e+03
3.7051367e+02
7.0577142e+02
1.4409156e+03
3.7991931e+02
1.3486158e+03
1.4769659e+03
4.0014432e+02
1.1331090e+03
1.4592355e+03
1.4257097e+03
3.9075583e+02
4.1896823e+02
4.5623743e+02
9.8639337e+02
5.6379755e+02
3.9701062e+02
4.4813901e+02
8.3764685e+02
1.4448060e+03
1.4270181e+03
1.8195289e+03
1.4055328e+03
1.7408069e+03
1.9001199e+03
4.7849191e+02
6.8950305e+02
1.4063632e+03
3.9344464e+02
1.7826848e+03
1.6318932e+03
1.7315604e+03
6.0438739e+02
1.3466792e+03
4.1258884e+02
4.4795624e+02
1.4077462e+03
1.1303478e+03
1.6812283e+03
1.7503115e+03
6.0191669e+02
1.4714816e+03
9.7675781e+02
1.7083435e+03
5.9649884e+02
1.6230515e+03
1.6537860e+03
1.4297467e+03
1.4091356e+03
1.6426514e+03
1.6767520e+03
5.0271136e+02
5.5048291e+02
1.4515989e+03
1.6635192e+03
1.6843972e+03
6.1194684e+02
8.2480298e+02
1.6422264e+03
1.6043506e+03
1.4108702e+03
3.9154141e+02
1.6437965e+03
1.6242623e+03
4.1976889e+02
1.6597257e+03
1.6444960e+03
1.6414287e+03
6.3680969e+02
6.7626630e+02
5.1790216e+02
4.3920404e+02
1.4343986e+03
1.6824094e+03
1.5683853e+03
8.5631232e+02
1.3414824e+03
1.6362805e+03
1.6349967e+03
1.4133568e+03
1.1260825e+03
1.6669172e+03
1.5837745e+03
8.2300708e+02
9.6814551e+02
1.3877452e+03
1.6448411e+03
1.6018987e+03
7.8779297e+02
6.5815594e+02
5.3905054e+02
1.4626125e+03
1.3889102e+03
1.6186061e+03
4.2153403e+02
1.3909390e+03
8.1405817e+02
3.8755737e+02
1.6219795e+03
1.6038171e+03
7.9474329e+02
5.2516418e+02
1.7489651e+03
1.5402866e+03
1.4169915e+03
1.7097078e+03
1.5513534e+03
1.4411548e+03
1.3931161e+03
1.6551525e+03
1.5676366e+03
4.3104218e+02
6.7089832e+02
6.6523590e+02
1.6027235e+03
1.5965770e+03
8.1811060e+02
1.6131166e+03
1.5741940e+03
1.3956879e+03
1.1586021e+03
1.3336312e+03
1.8556260e+03
1.5171014e+03
1.0623765e+03
5.2694745e+02
4.2030875e+02
1.1201273e+03
1.4221133e+03
5.2936823e+02
1.7731779e+03
1.5865770e+03
1.5249009e+03
8.3684265e+02
1.5904539e+03
1.5738796e+03
9.8422461e+02
9.5973352e+02
3.8298651e+02
1.6673185e+03
1.5386101e+03
6.7585413e+02
1.3989426e+03
1.4514017e+03
9.8915051e+02
8.0452301e+02
1.6055205e+03
1.5473322e+03
1.3705712e+03
4.2389621e+02
1.5790974e+03
1.5710759e+03
8.4612158e+02
1.3719574e+03
1.3744180e+03
2.0333193e+03
1.4969594e+03
1.0108257e+03
6.5578162e+02
1.4288336e+03
1.4031548e+03
1.8546489e+03
1.5837451e+03
1.5518636e+03
1.5024362e+03
5.2546088e+02
1.6725153e+03
1.5137538e+03
6.7540570e+02
4.1768707e+02
1.3771206e+03
1.5697544e+03
1.5650109e+03
1.3237361e+03
1.6021313e+03
1.5231714e+03
1.0249846e+03
5.2116779e+02
3.7859354e+02
1.5778795e+03
1.5545332e+03
1.3195311e+03
8.4759045e+02
1.1126627e+03
1.3802446e+03
1.1913215e+03
9.5117914e+02
1.4085651e+03
1.5870469e+03
1.5304547e+03
2.3478359e+03
1.4786599e+03
1.4385624e+03
1.9554946e+03
1.4825890e+03
1.1902430e+03
7.9568896e+02
1.0295139e+03
4.1783575e+02
1.3839979e+03
1.6877167e+03
1.5730586e+03
1.5579895e+03
1.4918827e+03
6.7173633e+02
5.2225751e+02
4.1458194e+02
1.5853647e+03
1.5365995e+03
1.2038086e+03
8.4398700e+02
6.4744818e+02
1.6180067e+03
1.5011334e+03
1.3538218e+03
1.4152384e+03
1.3553461e+03
1.3885759e+03
3.7470474e+02
1.6043369e+03
1.5096393e+03
1.0271903e+03
1.3580834e+03
1.5640066e+03
1.2116559e+03
5.1416248e+02
2.2322671e+03
1.4614172e+03
1.5816110e+03
1.5429529e+03
1.3123175e+03
1.7499089e+03
1.4643636e+03
1.1039680e+03
1.3611270e+03
1.5167861e+03
1.4720510e+03
6.6635034e+02
9.4236993e+02
5.1827399e+02
1.5998574e+03
1.5175604e+03
8.3744989e+02
1.3941559e+03
1.4688690e+03
1.4806844e+03
1.2129868e+03
4.1276974e+02
1.3646080e+03
7.8726361e+02
1.4245854e+03
1.0205956e+03
4.1145685e+02
1.5724186e+03
1.5503744e+03
6.3991339e+02
1.4567222e+03
1.4894247e+03
1.5929976e+03
1.5254003e+03
1.3686793e+03
1.4447515e+03
1.4471079e+03
3.7140329e+02
1.2092119e+03
1.4007667e+03
1.4535701e+03
6.6015570e+02
5.0809158e+02
1.4517964e+03
1.4979906e+03
8.2935980e+02
1.3373663e+03
1.5584397e+03
1.2997848e+03
1.0114696e+03
5.1401898e+02
1.3734828e+03
1.3389674e+03
1.4614167e+03
1.5817450e+03
1.5334288e+03
1.0943163e+03
1.3418701e+03
9.3329425e+02
1.4463610e+03
1.5063915e+03
4.0854449e+02
1.4698447e+03
1.2016193e+03
4.0851294e+02
1.3451250e+03
7.7907794e+02
1.4098109e+03
1.3791516e+03
1.4283910e+03
1.3488289e+03
1.5667361e+03
1.5412391e+03
6.3294751e+02
1.4304161e+03
1.4783909e+03
8.2053186e+02
1.4359753e+03
1.0009069e+03
6.5365216e+02
1.4380319e+03
1.5145950e+03
3.6865524e+02
1.3530953e+03
1.4430342e+03
1.1912805e+03
5.0974225e+02
5.0273569e+02
1.4868231e+03
1.3856852e+03
1.2864482e+03
1.4509067e+03
1.0839398e+03
1.5491829e+03
1.5222587e+03
9.2398065e+02
1.4266149e+03
4.0581152e+02
1.3580291e+03
1.3211134e+03
4.0499573e+02
1.3227468e+03
1.3257349e+03
9.8958514e+02
7.7103271e+02
1.4121971e+03
1.4590990e+03
8.1142035e+02
1.4949681e+03
1.4140526e+03
1.4189646e+03
1.1790709e+03
6.4709332e+02
1.3291100e+03
1.3944768e+03
6.2638654e+02
1.3637308e+03
3.6637878e+02
1.4253218e+03
1.4672903e+03
1.3329434e+03
1.4126714e+03
1.5301969e+03
5.0555063e+02
1.5025470e+03
4.9791757e+02
1.4325787e+03
1.3373207e+03
9.7792322e+02
1.3701758e+03
4.0334732e+02
1.2725377e+03
1.4752589e+03
1.1656906e+03
1.4402878e+03
8.0226678e+02
1.0730239e+03
4.0197318e+02
1.3961074e+03
9.1447046e+02
1.3978879e+03
1.3969678e+03
1.4023448e+03
6.4059625e+02
1.3423191e+03
1.5106101e+03
7.6306989e+02
1.3049989e+03
1.4481227e+03
1.3066324e+03
1.4081185e+03
1.3096484e+03
1.4827675e+03
3.6448145e+02
6.2011353e+02
1.3787509e+03
5.0147821e+02
1.4147966e+03
1.3130793e+03
1.3480156e+03
9.6617633e+02
1.1516702e+03
1.4558605e+03
4.9349896e+02
1.3169773e+03
7.9319159e+02
1.3802103e+03
1.4220072e+03
4.0108829e+02
1.3800977e+03
1.4909700e+03
1.3818534e+03
1.2582218e+03
1.3214070e+03
1.3859932e+03
6.3420660e+02
3.9935052e+02
1.3543650e+03
1.0617122e+03
1.4294581e+03
9.0480530e+02
1.4632872e+03
1.3913014e+03
7.5515588e+02
1.3264253e+03
4.9752582e+02
1.3974778e+03
3.6287799e+02
1.1373884e+03
9.5449432e+02
1.3629501e+03
6.1404584e+02
1.2889768e+03
1.4369465e+03
1.3627523e+03
1.2905876e+03
1.2935905e+03
1.4715928e+03
1.4042303e+03
7.8424878e+02
1.3320907e+03
4.8937488e+02
1.2970319e+03
1.3641588e+03
1.3659121e+03
3.9899631e+02
6.2793536e+02
1.4442715e+03
1.3698286e+03
1.4113146e+03
1.3009490e+03
3.9702710e+02
1.3747738e+03
1.2436230e+03
1.0501138e+03
1.3383420e+03
8.9502277e+02
1.3455702e+03
1.1230961e+03
1.3053906e+03
1.3805348e+03
9.4295874e+02
7.4727222e+02
4.9368152e+02
1.4185553e+03
3.6149738e+02
1.4526296e+03
6.0812585e+02
7.7545660e+02
1.3868905e+03
1.3103981e+03
1.3465669e+03
1.2730140e+03
1.2745863e+03
1.3482850e+03
1.4257598e+03
4.8546774e+02
1.3500417e+03
1.2775470e+03
3.9703659e+02
1.3936445e+03
1.3537961e+03
6.2177844e+02
1.3160160e+03
1.3283085e+03
1.2809670e+03
1.3584597e+03
1.1089447e+03
3.9492609e+02
1.2848716e+03
9.3160724e+02
1.2288304e+03
1.4006504e+03
1.3638842e+03
1.0383109e+03
1.4341243e+03
8.8515466e+02
4.8993063e+02
1.3221707e+03
1.2892974e+03
7.3940973e+02
3.6028412e+02
1.3699064e+03
7.6681500e+02
1.4077213e+03
6.0231409e+02
1.2942738e+03
1.3324689e+03
1.3112930e+03
1.3763721e+03
1.3342257e+03
1.3302557e+03
1.3378555e+03
6.1572620e+02
3.9518109e+02
1.0950139e+03
4.8172131e+02
1.2570868e+03
1.3422986e+03
1.2586095e+03
1.2998348e+03
1.4160571e+03
9.2045007e+02
1.2615082e+03
1.3831610e+03
3.9299039e+02
1.3474521e+03
1.2648846e+03
1.2139080e+03
4.8626019e+02
1.0263650e+03
1.2687551e+03
1.3531976e+03
7.5831519e+02
8.7522729e+02
1.3058966e+03
3.5919675e+02
1.3900928e+03
7.3156464e+02
1.2945758e+03
1.2731462e+03
1.3594152e+03
1.3166992e+03
5.9658386e+02
1.3184489e+03
1.0813344e+03
1.3219758e+03
6.0976843e+02
3.9340878e+02
1.3138627e+03
1.2780787e+03
1.3262423e+03
1.3983770e+03
4.7809573e+02
9.0948163e+02
1.3660073e+03
1.3311764e+03
1.2411772e+03
1.2426438e+03
3.9117889e+02
1.2835782e+03
1.2454672e+03
4.8266010e+02
7.4994482e+02
1.3366925e+03
1.1989017e+03
1.3728004e+03
1.0143220e+03
1.2781614e+03
1.2487852e+03
8.6526166e+02
3.5820535e+02
1.2526068e+03
1.3426975e+03
7.2373645e+02
1.2895532e+03
1.0679064e+03
1.3009630e+03
1.3026969e+03
6.0389581e+02
1.3061328e+03
5.9091760e+02
1.2569513e+03
1.3810205e+03
8.9868750e+02
1.3102532e+03
3.9170477e+02
1.3491133e+03
4.7456317e+02
1.2974196e+03
1.3150068e+03
1.2618323e+03
3.8946228e+02
1.2620269e+03
1.3557729e+03
1.3203313e+03
7.4169104e+02
4.7912311e+02
1.2252731e+03
1.2672692e+03
1.2266794e+03
1.1838446e+03
1.2294191e+03
1.0547124e+03
1.0022158e+03
1.3261543e+03
3.5728876e+02
8.5527441e+02
1.2326691e+03
1.2852457e+03
1.3639243e+03
7.1592639e+02
1.2869559e+03
1.2731646e+03
1.2364326e+03
1.2903065e+03
5.9810077e+02
8.8804974e+02
1.3324131e+03
5.8530383e+02
1.2943020e+03
3.9005893e+02
1.2407231e+03
1.2989042e+03
4.7110434e+02
1.2809486e+03
1.2461368e+03
1.3389478e+03
1.2455487e+03
1.3040669e+03
7.3354163e+02
3.8782013e+02
4.7564435e+02
1.0417271e+03
1.3097333e+03
1.2509246e+03
1.1687601e+03
1.2093651e+03
9.9007147e+02
1.3470317e+03
1.2107095e+03
3.5643231e+02
1.2695332e+03
8.4527856e+02
1.2133607e+03
1.2712128e+03
1.2744810e+03
5.9237720e+02
7.0813635e+02
8.7754956e+02
1.2165371e+03
1.3158531e+03
1.2783663e+03
1.2567482e+03
1.2202371e+03
5.7973541e+02
3.8846439e+02
1.2828386e+03
1.2304524e+03
1.3222734e+03
1.2244696e+03
4.6770615e+02
1.2878630e+03
7.2548572e+02
1.2644658e+03
4.7222058e+02
1.0289219e+03
3.8623813e+02
1.2292389e+03
1.2933940e+03
1.3302948e+03
1.2538124e+03
3.5562585e+02
1.1536647e+03
1.2345565e+03
1.2554561e+03
9.7790765e+02
8.6716937e+02
1.2993917e+03
1.1934471e+03
5.8672034e+02
8.3528400e+02
1.2586434e+03
1.1947291e+03
1.1972903e+03
1.2624293e+03
7.0036841e+02
1.2149359e+03
1.2003901e+03
3.8691666e+02
1.2403164e+03
1.2667881e+03
5.7420770e+02
1.3057091e+03
1.2040238e+03
1.2716930e+03
7.1751373e+02
4.6435965e+02
1.0162700e+03
1.2081970e+03
4.6884964e+02
1.2479821e+03
3.8470639e+02
1.3136749e+03
1.2771068e+03
1.2129106e+03
1.2380719e+03
1.2396761e+03
8.5689325e+02
3.5486227e+02
1.2829976e+03
1.1385696e+03
1.2427842e+03
5.8112653e+02
9.6573767e+02
1.2181742e+03
1.1995546e+03
8.2529828e+02
1.2464788e+03
1.1775151e+03
6.9262457e+02
1.1787355e+03
1.2507372e+03
1.1812064e+03
1.2892238e+03
3.8541263e+02
5.6871783e+02
1.2238784e+03
1.1842290e+03
1.2555378e+03
7.0961792e+02
1.0037466e+03
1.1877957e+03
4.6105869e+02
1.2971425e+03
4.6553003e+02
1.2608499e+03
1.1919098e+03
1.2315049e+03
3.8321793e+02
8.4670776e+02
1.1965701e+03
1.2223026e+03
1.2666477e+03
1.2238654e+03
5.7559265e+02
1.1842808e+03
3.5413657e+02
1.2268959e+03
1.1234824e+03
1.2305062e+03
9.5357141e+02
8.1532703e+02
1.2017842e+03
1.2727943e+03
1.2346750e+03
6.8490656e+02
3.8395004e+02
1.1615665e+03
1.1627266e+03
1.1651086e+03
9.9133118e+02
5.6326404e+02
1.2393845e+03
7.0179156e+02
1.2074403e+03
1.1680546e+03
1.2806747e+03
4.5779904e+02
1.1715551e+03
1.2446082e+03
4.6226056e+02
3.8176770e+02
1.2150392e+03
1.1756117e+03
8.3660150e+02
1.2503260e+03
1.1690920e+03
1.2064974e+03
1.2080179e+03
1.2109735e+03
5.7011633e+02
1.1802216e+03
3.5344495e+02
1.2145059e+03
1.1084086e+03
1.2564044e+03
9.4141577e+02
1.2185946e+03
8.0537421e+02
1.1853911e+03
3.8252710e+02
6.7721570e+02
9.7900623e+02
1.2232242e+03
6.9402936e+02
5.5784515e+02
1.1456001e+03
1.1467017e+03
1.2642555e+03
1.1489969e+03
1.1910065e+03
1.2283718e+03
4.5457767e+02
1.1518678e+03
4.5904016e+02
1.1553040e+03
8.2656531e+02
3.8035202e+02
1.1539713e+03
1.2340216e+03
1.1985880e+03
1.1906512e+03
1.1593054e+03
1.1921299e+03
1.1950138e+03
5.6469550e+02
3.5278448e+02
1.1984744e+03
1.1638683e+03
1.2400425e+03
1.0933508e+03
1.2024916e+03
9.2927563e+02
7.9544269e+02
9.6675793e+02
3.8114233e+02
1.1689983e+03
6.6955292e+02
1.2070516e+03
6.8632690e+02
1.2478733e+03
5.5246033e+02
1.1296156e+03
1.2121343e+03
1.1306605e+03
1.1745797e+03
1.1328716e+03
4.5586798e+02
4.5139236e+02
1.1356698e+03
1.1389052e+03
8.1659186e+02
1.2177272e+03
3.7896802e+02
1.1390438e+03
1.1747609e+03
1.1821532e+03
1.1761989e+03
1.1790150e+03
5.5932843e+02
1.1429930e+03
1.2237008e+03
1.1824100e+03
3.5215280e+02
1.1863638e+03
1.1475127e+03
9.5457556e+02
1.0783112e+03
9.1715430e+02
7.8553455e+02
3.7979428e+02
6.7868073e+02
1.1908639e+03
1.2315200e+03
6.6191895e+02
1.1526082e+03
1.1958920e+03
5.4710895e+02
4.5274304e+02
1.1136133e+03
4.4824139e+02
1.1238839e+03
1.1581619e+03
1.1146035e+03
8.0667542e+02
1.1167334e+03
1.2014381e+03
1.1194615e+03
3.7761343e+02
1.1588242e+03
1.1602236e+03
1.1227760e+03
5.5401379e+02
1.1629767e+03
1.1657356e+03
1.2073743e+03
1.1663124e+03
3.5154782e+02
1.1266760e+03
1.1702104e+03
9.4245068e+02
1.1311562e+03
1.0632903e+03
1.2151907e+03
1.1746597e+03
6.7108820e+02
9.0505402e+02
3.7848163e+02
7.7565100e+02
6.5431415e+02
1.1796427e+03
1.1362219e+03
5.4179053e+02
1.1089004e+03
4.4966446e+02
7.9681165e+02
1.1851521e+03
4.4512341e+02
1.1417540e+03
1.0975942e+03
1.0985317e+03
1.1005831e+03
1.1428407e+03
1.1442039e+03
3.7628632e+02
1.1032439e+03
5.4875031e+02
1.1468988e+03
1.1910601e+03
1.1501818e+03
1.1065017e+03
1.1493354e+03
9.3037708e+02
3.5096777e+02
1.1540320e+03
1.1103558e+03
1.1988818e+03
1.1584388e+03
6.6354712e+02
1.0482886e+03
3.7720312e+02
1.1148004e+03
8.9297607e+02
7.6579285e+02
1.1633861e+03
6.4673871e+02
1.0939498e+03
1.1198408e+03
5.3650458e+02
4.4663147e+02
7.8699719e+02
1.1688678e+03
4.4203726e+02
1.1253566e+03
1.0815598e+03
1.1268104e+03
1.0824463e+03
1.1281403e+03
3.7498505e+02
1.1747565e+03
1.0844219e+03
1.1307827e+03
5.4353723e+02
1.0870179e+03
1.1340193e+03
9.1835022e+02
1.1329526e+03
1.0902220e+03
3.5041098e+02
1.1378291e+03
1.1825918e+03
1.0940332e+03
1.1422019e+03
6.5605603e+02
3.7595752e+02
1.0333057e+03
8.8092126e+02
1.0984458e+03
7.5596033e+02
1.1471221e+03
1.0790286e+03
6.3919263e+02
5.3125055e+02
7.7722974e+02
4.4364328e+02
1.1034653e+03
1.1525851e+03
4.3898187e+02
1.1107339e+03
1.1089698e+03
1.1120338e+03
1.1584629e+03
5.3837372e+02
1.1146294e+03
3.7370810e+02
1.0655117e+03
1.0663485e+03
1.1178263e+03
1.0682510e+03
9.0636688e+02
1.0707847e+03
1.1216033e+03
1.1165865e+03
3.4987592e+02
1.1663198e+03
1.0739377e+03
1.1259500e+03
6.4861389e+02
1.0777091e+03
3.7474368e+02
1.0183409e+03
1.1308516e+03
1.0641345e+03
8.6888977e+02
7.4615356e+02
1.0820933e+03
6.3167572e+02
7.6750769e+02
1.1363043e+03
4.4069925e+02
5.2602808e+02
1.0870958e+03
4.3595633e+02
1.1421793e+03
1.0946127e+03
1.0958859e+03
1.0984407e+03
5.3325946e+02
1.0925936e+03
3.7245416e+02
8.9442480e+02
1.1016046e+03
1.0494518e+03
1.0502402e+03
1.0520715e+03
1.1053560e+03
1.1500657e+03
3.4936115e+02
1.0545453e+03
1.1002368e+03
6.4122003e+02
1.1096846e+03
1.0576497e+03
1.0492665e+03
3.7356049e+02
1.0613840e+03
1.1145757e+03
1.0033938e+03
8.5688159e+02
7.3637250e+02
1.0657429e+03
7.5783008e+02
6.2418781e+02
1.1200264e+03
4.3779877e+02
5.2083661e+02
1.0707324e+03
1.1259064e+03
4.3295972e+02
1.0784479e+03
1.0796981e+03
1.0822183e+03
5.2819409e+02
8.8252271e+02
1.0762277e+03
1.0853561e+03
3.7122195e+02
1.1338298e+03
1.0890890e+03
1.0333821e+03
1.0341230e+03
1.0358851e+03
3.4886539e+02
6.3387427e+02
1.0839026e+03
1.0934071e+03
1.0383009e+03
1.0344235e+03
1.0413588e+03
1.0982957e+03
3.7240701e+02
1.0450586e+03
9.8846326e+02
8.4489642e+02
7.4819635e+02
7.2661670e+02
1.1037521e+03
6.1672845e+02
1.0493953e+03
4.3494147e+02
5.1567566e+02
1.1096448e+03
1.0543750e+03
1.0622411e+03
4.2999124e+02
1.0634722e+03
5.2317773e+02
1.0659640e+03
8.7065991e+02
1.0690822e+03
3.7001031e+02
1.0598716e+03
1.1176130e+03
1.0728041e+03
1.0173047e+03
3.4838742e+02
1.0179988e+03
1.0771191e+03
6.2657660e+02
1.0196931e+03
1.0675833e+03
1.0196055e+03
1.0220524e+03
1.0820129e+03
3.7128235e+02
1.0250658e+03
9.7354858e+02
1.0287334e+03
7.3860657e+02
8.3293396e+02
1.0874828e+03
7.1688586e+02
4.3212701e+02
6.0929736e+02
1.0330504e+03
1.0933955e+03
5.1054465e+02
1.0459939e+03
1.0472097e+03
1.0380236e+03
8.5883618e+02
4.2705005e+02
1.0496793e+03
5.1821039e+02
1.0527849e+03
1.1014161e+03
3.6881815e+02
1.0565028e+03
1.0435251e+03
1.0608224e+03
6.1932733e+02
3.4792615e+02
1.0048126e+03
1.0012220e+03
1.0018697e+03
1.0512780e+03
1.0034969e+03
1.0657288e+03
1.0058011e+03
3.7018573e+02
1.0087714e+03
7.2906097e+02
1.0712196e+03
9.5864868e+02
8.2099359e+02
1.0124087e+03
7.0717950e+02
4.2935529e+02
6.0189404e+02
1.0771598e+03
1.0167084e+03
5.0544312e+02
1.0297079e+03
8.4705176e+02
1.0309122e+03
1.0333662e+03
5.1329260e+02
4.2413531e+02
1.0216778e+03
1.0852401e+03
1.0364658e+03
3.6764435e+02
1.0401869e+03
1.0271876e+03
1.0445183e+03
6.1212720e+02
9.9004517e+02
3.4748053e+02
9.8513635e+02
1.0494448e+03
9.8573755e+02
1.0349860e+03
9.8729834e+02
3.6911649e+02
9.8954797e+02
7.1956018e+02
1.0549641e+03
9.9247644e+02
9.4376276e+02
8.0907471e+02
9.9608496e+02
4.2662622e+02
6.9749701e+02
1.0609387e+03
5.9451807e+02
1.0003695e+03
5.0037045e+02
8.3530731e+02
1.0133843e+03
1.0145811e+03
1.0170258e+03
5.0842484e+02
1.0690863e+03
4.2124631e+02
1.0053376e+03
1.0201265e+03
1.0238577e+03
3.6648798e+02
1.0108587e+03
9.7530383e+02
1.0282083e+03
6.0497699e+02
3.4704962e+02
1.0331624e+03
1.0187066e+03
9.6905023e+02
9.6960449e+02
3.6807407e+02
9.7109882e+02
7.1010516e+02
1.0387174e+03
9.7329431e+02
9.7618164e+02
9.2888977e+02
7.9717670e+02
4.2394003e+02
6.8783789e+02
1.0447336e+03
9.7976263e+02
5.8716882e+02
8.2360370e+02
4.9532617e+02
9.9702423e+02
9.8403363e+02
9.9821759e+02
1.0529561e+03
1.0006596e+03
5.0360794e+02
4.1838223e+02
1.0037681e+03
9.8900275e+02
1.0075168e+03
3.6534808e+02
9.6058936e+02
1.0118939e+03
5.9787787e+02
9.9453778e+02
3.4663260e+02
1.0168828e+03
1.0024391e+03
9.5296600e+02
3.6705807e+02
7.0069714e+02
9.5347278e+02
1.0224809e+03
9.5490009e+02
9.5704132e+02
9.5988782e+02
1.0285459e+03
4.2129694e+02
9.1402893e+02
7.8529883e+02
6.7820154e+02
9.6344202e+02
8.1194208e+02
5.7984589e+02
9.8062878e+02
9.8182281e+02
4.9030963e+02
1.0368505e+03
4.9884290e+02
9.8426874e+02
9.6770087e+02
9.8739203e+02
4.1554233e+02
9.9116541e+02
9.7267291e+02
3.6422372e+02
9.4590271e+02
9.9557623e+02
5.9083118e+02
9.7822430e+02
3.4622870e+02
1.0006075e+03
6.9133752e+02
1.0062560e+03
3.6606818e+02
9.8618268e+02
9.3688641e+02
9.3734454e+02
9.3870374e+02
9.4079004e+02
1.0123767e+03
4.1869742e+02
8.9917914e+02
7.7344049e+02
9.4359558e+02
6.6858722e+02
8.0032391e+02
5.7254871e+02
9.4712354e+02
9.6419867e+02
1.0207712e+03
9.6539746e+02
4.8532025e+02
9.6785413e+02
4.9413086e+02
9.5137115e+02
9.7099927e+02
4.1272580e+02
9.7480457e+02
9.3124493e+02
9.5634772e+02
3.6311407e+02
9.7925671e+02
5.8383850e+02
3.4583722e+02
9.8433777e+02
9.6191772e+02
6.8202802e+02
9.9004401e+02
3.6510419e+02
9.6993665e+02
9.2081396e+02
9.2122205e+02
9.2251154e+02
9.9622760e+02
9.2454181e+02
4.1614203e+02
8.8433954e+02
7.8875079e+02
7.6160077e+02
9.2730579e+02
6.5899432e+02
5.6527661e+02
1.0047198e+03
9.4773444e+02
9.4894232e+02
9.3080743e+02
9.5141650e+02
4.8947318e+02
4.8035745e+02
9.5459082e+02
9.3504456e+02
4.0993188e+02
9.5843549e+02
9.1661725e+02
3.6201825e+02
9.4002698e+02
9.6293640e+02
5.7690167e+02
9.6807483e+02
3.4545761e+02
9.4561749e+02
6.7277057e+02
9.7384644e+02
3.6416602e+02
9.5370026e+02
9.8010010e+02
9.0475153e+02
9.0510767e+02
9.0632532e+02
4.1363147e+02
7.7722473e+02
9.0829785e+02
8.6950916e+02
7.4977893e+02
6.4942212e+02
9.1101923e+02
9.8869788e+02
9.3123645e+02
5.5802905e+02
9.3245770e+02
9.3495654e+02
4.8487140e+02
9.1449408e+02
4.7542053e+02
9.3816736e+02
9.0202106e+02
9.1872095e+02
9.4205908e+02
4.0715982e+02
5.7002264e+02
9.4661658e+02
3.6093549e+02
9.2371014e+02
9.5182013e+02
3.4508929e+02
9.2932294e+02
6.6356726e+02
9.5766461e+02
3.6325366e+02
9.3747272e+02
9.6399573e+02
8.8870197e+02
4.1116669e+02
8.8900397e+02
7.6574768e+02
8.9014697e+02
8.5468707e+02
8.9205951e+02
7.3797418e+02
9.7270709e+02
6.3986987e+02
9.1470465e+02
8.9473657e+02
9.1594385e+02
5.5080530e+02
9.1847461e+02
4.8032727e+02
9.2172955e+02
4.7050885e+02
8.9818378e+02
8.8745782e+02
9.2567621e+02
4.0440878e+02
9.0240027e+02
9.3029828e+02
5.6320380e+02
3.5986505e+02
9.0739697e+02
9.3557489e+02
3.4473187e+02
9.1303345e+02
6.5442065e+02
9.4150018e+02
3.6236731e+02
9.4791626e+02
9.2125317e+02
7.5432214e+02
4.0874866e+02
8.7266821e+02
8.7291333e+02
9.5674951e+02
8.7397833e+02
8.3987225e+02
7.2618561e+02
8.7582806e+02
6.3033679e+02
8.9813892e+02
8.9940082e+02
9.0197095e+02
4.7584277e+02
5.4360468e+02
8.7845868e+02
9.0527802e+02
8.7292926e+02
4.6562170e+02
8.8187683e+02
9.0928772e+02
4.0167801e+02
8.8608234e+02
5.5644763e+02
9.1398260e+02
3.5880615e+02
9.1934052e+02
8.9108691e+02
3.4438501e+02
6.4533337e+02
9.2535468e+02
8.9674829e+02
3.6150720e+02
9.3186340e+02
9.0504083e+02
7.4295062e+02
4.0637860e+02
9.4082715e+02
8.5665344e+02
8.5683862e+02
8.5782141e+02
8.2506354e+02
7.1441223e+02
8.8153882e+02
8.8282831e+02
6.2082190e+02
8.5960486e+02
8.8544574e+02
4.7142001e+02
5.3642639e+02
8.6218634e+02
8.5843719e+02
8.8881317e+02
4.6075833e+02
8.9289435e+02
8.6557361e+02
3.9896664e+02
5.4975696e+02
8.9767065e+02
8.6976715e+02
3.5775812e+02
9.0311835e+02
8.7477948e+02
3.4404837e+02
6.3630841e+02
9.0922980e+02
8.8046667e+02
3.6067371e+02
9.1583923e+02
8.8883478e+02
7.3163611e+02
4.0405783e+02
9.2494220e+02
8.4066107e+02
8.4078259e+02
8.1025995e+02
7.0265308e+02
8.6490375e+02
8.4167847e+02
8.6622595e+02
6.1132428e+02
8.6889899e+02
4.6706143e+02
8.4339142e+02
8.4398370e+02
5.2926965e+02
8.7233533e+02
8.4592041e+02
4.5591791e+02
8.7649695e+02
8.4927423e+02
3.9627393e+02
8.8136353e+02
5.4313477e+02
8.5345435e+02
3.5672031e+02
8.8690997e+02
8.5847406e+02
3.4372177e+02
6.2734906e+02
8.9312738e+02
8.6418774e+02
3.5986737e+02
8.9984576e+02
7.2038177e+02
8.7263391e+02
4.0178787e+02
9.0909723e+02
8.4823285e+02
8.2469452e+02
8.2474823e+02
7.9546021e+02
8.4959314e+02
6.9090698e+02
8.2555164e+02
8.5233038e+02
4.6276959e+02
6.0184296e+02
8.2957111e+02
8.2718933e+02
8.5584479e+02
5.2213354e+02
8.2966174e+02
8.6009613e+02
4.5109961e+02
8.3297913e+02
8.6506244e+02
5.3658447e+02
3.9359897e+02
8.3714386e+02
8.7071698e+02
3.5569208e+02
6.1845886e+02
8.4217010e+02
8.7704938e+02
3.4340518e+02
8.4791058e+02
8.8388538e+02
3.5908878e+02
7.0919110e+02
8.5643719e+02
8.9329486e+02
3.9957040e+02
8.3152502e+02
8.3292914e+02
8.1520184e+02
7.8066302e+02
8.3573975e+02
8.0875763e+02
4.5854733e+02
6.7917279e+02
8.0873883e+02
5.9237671e+02
8.0944342e+02
8.3934180e+02
5.1501703e+02
8.1100006e+02
8.4369269e+02
4.4630255e+02
8.1341119e+02
8.4876862e+02
5.3010968e+02
3.9094095e+02
8.1668842e+02
8.5454095e+02
3.5467285e+02
8.2083527e+02
6.0964178e+02
8.6099799e+02
3.4309851e+02
8.2586688e+02
8.6796063e+02
3.5833875e+02
8.3163416e+02
6.9806793e+02
8.7753809e+02
3.9740735e+02
8.4024347e+02
8.1477893e+02
8.1623297e+02
8.0087885e+02
8.1912659e+02
4.5439780e+02
7.6586707e+02
6.6744910e+02
7.9285443e+02
8.2282654e+02
5.8292444e+02
7.9275787e+02
7.9335626e+02
5.0791916e+02
8.2728735e+02
7.9482544e+02
4.4152579e+02
7.9716980e+02
8.3248340e+02
5.2371436e+02
3.8829901e+02
8.0040247e+02
8.3838391e+02
3.5366211e+02
8.0452832e+02
6.0090216e+02
8.4497559e+02
3.4280194e+02
8.0956354e+02
8.5207428e+02
3.5761819e+02
8.1535736e+02
6.8701648e+02
8.6183014e+02
3.9530072e+02
8.2405133e+02
7.8660504e+02
7.9799304e+02
7.9950348e+02
8.0249054e+02
4.5032428e+02
7.5107080e+02
6.5573456e+02
8.0629913e+02
5.7348468e+02
7.7698932e+02
7.7680896e+02
5.0083875e+02
8.1088098e+02
7.7729309e+02
7.7866736e+02
4.3676828e+02
8.1620825e+02
5.1740277e+02
7.8093854e+02
3.8567227e+02
8.2224786e+02
7.8412158e+02
3.5265942e+02
5.9224463e+02
7.8822266e+02
8.2898474e+02
3.4251566e+02
7.9325916e+02
8.3622943e+02
3.5692819e+02
6.7604144e+02
7.9907886e+02
8.4617468e+02
3.9325281e+02
8.0785944e+02
7.7238403e+02
7.8116565e+02
7.8273950e+02
7.8583087e+02
4.4633044e+02
7.3627264e+02
7.8975977e+02
6.4402740e+02
5.6405603e+02
7.6116699e+02
7.9447443e+02
7.6089618e+02
4.9377454e+02
7.6125677e+02
4.3202902e+02
7.6252777e+02
7.9994470e+02
5.1117972e+02
7.6471851e+02
3.8305994e+02
8.0613501e+02
7.6784589e+02
3.5166440e+02
5.8367432e+02
8.1302838e+02
7.7191772e+02
3.4224002e+02
8.2042957e+02
7.7695282e+02
3.5627002e+02
6.6514783e+02
7.8279736e+02
8.3057568e+02
3.9126611e+02
7.9166608e+02
7.5821942e+02
7.6429480e+02
7.6593945e+02
7.6914709e+02
4.4242026e+02
7.7320856e+02
7.2147076e+02
6.3232605e+02
5.5463690e+02
7.7806873e+02
4.8672525e+02
7.4539258e+02
7.4502399e+02
7.4525067e+02
7.8369464e+02
5.0505017e+02
4.2730698e+02
7.4640894e+02
3.8046121e+02
7.9004797e+02
7.4851086e+02
7.5157574e+02
3.5067673e+02
5.7519684e+02
7.9710974e+02
7.5561316e+02
3.4197556e+02
8.0467834e+02
7.6064343e+02
6.5434131e+02
3.5564508e+02
8.1503754e+02
7.6651123e+02
3.8934338e+02
7.4411554e+02
7.7546954e+02
7.4737836e+02
7.4910193e+02
7.5243848e+02
4.3859793e+02
7.5664581e+02
7.0666327e+02
6.2062848e+02
7.6166492e+02
5.4522546e+02
4.7968945e+02
7.2967169e+02
7.6745996e+02
4.9901965e+02
7.2919696e+02
7.2927832e+02
4.2260101e+02
7.3031317e+02
7.7398956e+02
3.7787531e+02
7.3231696e+02
5.6681830e+02
3.4969626e+02
7.8123230e+02
7.3531146e+02
7.3930835e+02
3.4172290e+02
7.8898010e+02
6.4362787e+02
7.4432965e+02
3.5505502e+02
7.9956506e+02
7.5021875e+02
3.8748752e+02
7.3007703e+02
7.5926794e+02
7.3041406e+02
7.3222516e+02
7.3570422e+02
4.3486807e+02
7.4007178e+02
6.9184808e+02
7.4526447e+02
6.0893262e+02
5.3582001e+02
4.7266574e+02
7.5124310e+02
4.9309406e+02
7.1401038e+02
7.1342053e+02
4.1791010e+02
7.1334363e+02
7.5796301e+02
7.1424316e+02
3.7530161e+02
7.1613824e+02
5.5854529e+02
7.6540021e+02
3.4872299e+02
7.1905341e+02
3.4148294e+02
7.2300275e+02
7.7333954e+02
6.3301434e+02
7.2801025e+02
3.5450174e+02
7.8416370e+02
7.3391815e+02
3.8570181e+02
7.1610901e+02
7.4305902e+02
7.1339941e+02
7.1530737e+02
7.1894379e+02
4.3123557e+02
7.2348694e+02
7.2886877e+02
6.7702295e+02
5.9723621e+02
5.2641840e+02
7.3504651e+02
4.8727979e+02
4.6565259e+02
6.9841528e+02
6.9770020e+02
4.1323318e+02
6.9745099e+02
7.4197192e+02
6.9820190e+02
3.7273956e+02
6.9997626e+02
5.5038501e+02
7.4961792e+02
3.4775711e+02
7.0280194e+02
7.5776190e+02
3.4125677e+02
7.0669562e+02
6.2250800e+02
7.1168359e+02
7.6883948e+02
3.5398734e+02
7.1760730e+02
3.8398975e+02
7.0221722e+02
6.9633191e+02
7.2684052e+02
6.9834686e+02
4.2770572e+02
7.0215649e+02
7.0689185e+02
7.1247974e+02
6.6218536e+02
5.8553668e+02
5.1701868e+02
7.1887335e+02
4.8158374e+02
4.5864853e+02
4.0856937e+02
6.8289362e+02
7.2602032e+02
6.8204236e+02
6.8160504e+02
3.7018878e+02
6.8219263e+02
5.4234528e+02
7.3389050e+02
6.8383295e+02
3.4679901e+02
6.8655750e+02
7.4225305e+02
3.4104568e+02
6.9038629e+02
6.1211682e+02
7.5359900e+02
3.5351413e+02
6.9534821e+02
6.8840808e+02
3.8235510e+02
7.0128387e+02
6.7920880e+02
6.8134174e+02
7.1060980e+02
6.8534174e+02
4.2428415e+02
6.9028735e+02
6.9609949e+02
6.4733276e+02
5.7383148e+02
7.0272705e+02
4.7601328e+02
5.0761853e+02
4.5165207e+02
7.1011304e+02
4.0391788e+02
6.6745337e+02
6.6645380e+02
6.6581116e+02
3.6764923e+02
5.3443457e+02
7.1822369e+02
6.6621893e+02
6.6771021e+02
3.4584937e+02
7.2681958e+02
6.7032074e+02
3.4085138e+02
6.0184973e+02
6.7407404e+02
7.3844971e+02
3.5308478e+02
6.7900214e+02
6.7468860e+02
3.8080197e+02
6.8494550e+02
6.6202740e+02
6.6429022e+02
6.6849927e+02
4.2097690e+02
6.9436414e+02
6.7367456e+02
6.7973071e+02
6.3246222e+02
5.6211768e+02
6.8661157e+02
4.7057629e+02
4.9821585e+02
4.4466190e+02
6.9425531e+02
3.9927820e+02
6.5210309e+02
6.5094208e+02
5.2666217e+02
3.6512103e+02
6.5007513e+02
7.0262402e+02
6.5028497e+02
3.4490927e+02
6.5161053e+02
7.1146893e+02
6.5409229e+02
3.4067578e+02
5.9171625e+02
6.5775812e+02
7.2339984e+02
3.5270224e+02
6.6264362e+02
6.6106665e+02
3.7933469e+02
6.6858936e+02
6.4478516e+02
6.4719073e+02
4.1779031e+02
6.5162891e+02
6.7810040e+02
6.5705493e+02
6.6337640e+02
6.7053168e+02
4.6528125e+02
6.1757074e+02
5.5039233e+02
4.8880838e+02
4.3767682e+02
6.7845325e+02
3.9465005e+02
5.1903784e+02
6.3685229e+02
6.8709888e+02
6.3551550e+02
3.6260480e+02
6.3440344e+02
6.3439526e+02
3.4398013e+02
6.9620947e+02
6.3553644e+02
6.3787305e+02
5.8172693e+02
3.4052124e+02
7.0845868e+02
6.4143774e+02
3.5236978e+02
6.4627045e+02
6.4755103e+02
3.7795795e+02
6.5221252e+02
6.2747949e+02
6.3004169e+02
4.1473117e+02
6.3473090e+02
6.6181531e+02
6.4043054e+02
6.4704047e+02
6.5449280e+02
4.6013718e+02
6.0265503e+02
5.3865228e+02
4.7939398e+02
4.3069598e+02
6.6271393e+02
3.9003372e+02
5.1157236e+02
6.7165656e+02
6.2171112e+02
3.6010168e+02
6.2018304e+02
6.1880328e+02
6.1855499e+02
3.4306393e+02
6.8105060e+02
6.1949121e+02
5.7189331e+02
3.4039053e+02
6.2166412e+02
6.9363641e+02
6.2511224e+02
3.5209100e+02
6.3415143e+02
6.2988055e+02
3.7667673e+02
6.3581183e+02
6.1010809e+02
6.1284210e+02
6.1780597e+02
4.1180661e+02
6.2380402e+02
6.4550531e+02
6.3072736e+02
6.3850134e+02
4.5515353e+02
5.8771173e+02
5.2689441e+02
4.6997070e+02
6.4704547e+02
4.2371893e+02
3.8542999e+02
5.0427722e+02
6.5630664e+02
3.5761337e+02
6.0669067e+02
6.0495453e+02
6.0328247e+02
6.6600281e+02
3.4216321e+02
6.0276990e+02
6.0347827e+02
5.6222784e+02
3.4028693e+02
6.0546686e+02
6.7894464e+02
6.0878094e+02
3.5186993e+02
6.2087878e+02
6.1347156e+02
3.7549631e+02
6.1938391e+02
5.9266919e+02
5.9559131e+02
6.0085541e+02
4.0902405e+02
6.0717871e+02
6.2916656e+02
6.1444257e+02
6.2256482e+02
4.5034045e+02
5.7273724e+02
5.1511536e+02
4.6053683e+02
6.3145709e+02
4.1674573e+02
3.8084039e+02
4.9716476e+02
6.4106000e+02
3.5514246e+02
5.9180280e+02
5.8984064e+02
6.5107825e+02
5.8784973e+02
3.4128122e+02
5.8704657e+02
5.5274426e+02
5.8750183e+02
3.4021426e+02
6.6439618e+02
5.8928302e+02
3.5171097e+02
5.9244342e+02
6.0774530e+02
5.9704120e+02
3.7442233e+02
6.0292511e+02
5.7516150e+02
5.7828937e+02
4.0639130e+02
5.8388147e+02
5.9055896e+02
6.1279504e+02
5.9819281e+02
6.0669202e+02
4.4570853e+02
5.5772778e+02
5.0331210e+02
6.1595966e+02
4.5109119e+02
4.0977728e+02
4.9024817e+02
6.2592896e+02
3.7626736e+02
3.5269229e+02
6.3629041e+02
5.7706000e+02
5.7485278e+02
5.7251465e+02
3.4042203e+02
5.4345740e+02
5.7139215e+02
5.7156659e+02
6.5000543e+02
3.4017700e+02
5.7311475e+02
3.5161896e+02
5.7609937e+02
5.9476453e+02
5.8058704e+02
3.7346069e+02
5.8643176e+02
5.5758472e+02
5.6093738e+02
4.0391653e+02
5.6688727e+02
5.7395050e+02
5.8198602e+02
5.9638647e+02
5.9089325e+02
4.4126886e+02
5.4267969e+02
6.0056549e+02
4.9148160e+02
4.4163303e+02
4.0281531e+02
4.8354156e+02
6.1092773e+02
3.7171445e+02
3.5026740e+02
6.2165466e+02
5.6247559e+02
5.6000317e+02
3.3959052e+02
5.5728754e+02
5.3438354e+02
5.5581482e+02
6.3578857e+02
5.5567810e+02
3.4018024e+02
5.5696484e+02
3.5159927e+02
5.8195178e+02
5.5974878e+02
3.7261765e+02
5.6410687e+02
5.3993976e+02
5.4353766e+02
5.6989990e+02
5.4987762e+02
4.0160812e+02
5.5736041e+02
5.6583185e+02
5.7993646e+02
5.7518060e+02
4.3703308e+02
5.8528894e+02
5.2758905e+02
4.7962122e+02
4.3216251e+02
3.9586267e+02
4.7705997e+02
5.9607245e+02
3.6718640e+02
3.4787341e+02
6.0718848e+02
5.4806311e+02
5.2554022e+02
3.3879272e+02
5.4530463e+02
5.4217938e+02
6.2176385e+02
5.4032349e+02
3.4022995e+02
5.3984265e+02
5.4083679e+02
5.6932416e+02
3.5165781e+02
5.4339227e+02
3.7189984e+02
5.4759857e+02
5.2222919e+02
5.2609430e+02
5.5332562e+02
3.9947488e+02
5.3285883e+02
5.4079767e+02
5.4974188e+02
5.6344049e+02
5.5956830e+02
4.3301340e+02
5.7014648e+02
5.1245215e+02
4.6772870e+02
4.2268063e+02
4.7081934e+02
3.8892365e+02
5.8138159e+02
3.6268939e+02
5.9291156e+02
3.4551730e+02
5.1694659e+02
3.3803561e+02
5.3383618e+02
5.3077002e+02
5.2720203e+02
6.0795154e+02
5.2492786e+02
3.4033289e+02
5.2406757e+02
5.5690088e+02
5.2473474e+02
3.5180112e+02
5.2703088e+02
3.7131439e+02
5.3106036e+02
5.0445776e+02
5.0861349e+02
5.1583954e+02
3.9752603e+02
5.3670508e+02
5.2427350e+02
5.3373016e+02
5.4689392e+02
5.4407281e+02
4.2922250e+02
5.5515717e+02
4.9726550e+02
4.5580249e+02
4.1318964e+02
4.6483673e+02
5.6687610e+02
3.8200381e+02
3.5823108e+02
5.7884625e+02
3.4320734e+02
5.0862338e+02
3.3732733e+02
5.1980811e+02
5.9437469e+02
5.1641241e+02
5.1236743e+02
5.0963846e+02
3.4049677e+02
5.0836102e+02
5.4470367e+02
5.0866409e+02
3.5203650e+02
5.1066672e+02
3.7086908e+02
5.1449109e+02
4.8663315e+02
4.9110434e+02
4.9883124e+02
3.9577130e+02
5.2003473e+02
5.0780194e+02
5.1781323e+02
5.3029236e+02
5.2871350e+02
4.2567389e+02
5.4034271e+02
4.8202585e+02
4.4384167e+02
4.0369302e+02
4.5913025e+02
5.5257990e+02
3.7511041e+02
3.5382062e+02
5.6501782e+02
3.4095316e+02
5.0059317e+02
3.3667725e+02
5.8105908e+02
5.0599072e+02
5.0224396e+02
4.9768762e+02
3.4073035e+02
4.9446637e+02
5.3275714e+02
4.9273218e+02
3.5237228e+02
4.9263123e+02
4.9430273e+02
3.7057248e+02
4.9789032e+02
4.6876663e+02
4.7357947e+02
3.9422125e+02
4.8184872e+02
4.9140021e+02
5.0331128e+02
5.0201089e+02
5.1351257e+02
4.2238187e+02
5.1363135e+02
5.2572784e+02
4.6673044e+02
4.3184641e+02
4.5371945e+02
3.9419556e+02
5.3851984e+02
3.6825211e+02
3.4946857e+02
5.5145471e+02
3.3876553e+02
4.9288065e+02
3.3609579e+02
5.6803363e+02
4.9239374e+02
4.8827518e+02
4.8317389e+02
3.4104358e+02
4.7942273e+02
5.2108905e+02
4.7719110e+02
3.5281805e+02
4.7664389e+02
4.7794342e+02
3.7043454e+02
4.8125870e+02
4.5087415e+02
4.5605600e+02
4.6491098e+02
3.9288770e+02
4.7508936e+02
4.8653226e+02
4.8634641e+02
4.9849582e+02
4.1936212e+02
4.9690695e+02
5.1134070e+02
4.5137717e+02
4.1981778e+02
4.4862546e+02
5.2472632e+02
3.8470340e+02
3.6143875e+02
3.4518637e+02
5.3818896e+02
3.3665610e+02
4.8551270e+02
5.5533105e+02
3.3559439e+02
4.7902319e+02
4.7451379e+02
3.4144785e+02
4.6883578e+02
5.0973099e+02
4.6451831e+02
4.6174847e+02
3.5338507e+02
4.6071118e+02
3.7046710e+02
4.6159479e+02
4.6459836e+02
4.3297733e+02
4.3855634e+02
4.4804187e+02
3.9178439e+02
4.5889478e+02
4.6969601e+02
4.7084695e+02
4.8369235e+02
4.1663214e+02
4.8011557e+02
4.9721268e+02
4.4387152e+02
4.3596484e+02
5.1123300e+02
4.0775781e+02
3.7522354e+02
3.5468091e+02
5.2525616e+02
3.4098578e+02
4.7851904e+02
3.3463684e+02
5.4298785e+02
3.3518536e+02
4.6587949e+02
4.6096286e+02
3.4195615e+02
4.9871890e+02
4.5467990e+02
4.4976260e+02
4.4641528e+02
3.5408713e+02
4.4484363e+02
3.7068488e+02
4.4526489e+02
4.1510468e+02
4.4791324e+02
4.2110947e+02
4.3127100e+02
3.9092801e+02
4.4284689e+02
4.5280215e+02
4.5554391e+02
4.6913504e+02
4.1421237e+02
4.6325424e+02
4.8337866e+02
4.3948380e+02
4.9807718e+02
4.2049329e+02
3.9566940e+02
3.6576331e+02
3.4798862e+02
5.1269604e+02
3.3687787e+02
4.7193271e+02
3.3271936e+02
5.3104492e+02
3.3488177e+02
4.8809387e+02
3.4258356e+02
4.5295502e+02
4.4761856e+02
4.4070782e+02
4.3516226e+02
3.5494147e+02
4.3120193e+02
4.2905298e+02
3.7110696e+02
4.2896390e+02
3.9729309e+02
4.0375201e+02
4.3120947e+02
4.1463449e+02
3.9033987e+02
4.2698138e+02
4.4047293e+02
4.3585190e+02
4.5486020e+02
4.1212747e+02
4.4632050e+02
4.6987659e+02
4.3549243e+02
4.8529929e+02
4.0496356e+02
3.8355557e+02
3.5632904e+02
3.4137000e+02
5.0055200e+02
3.3287122e+02
4.6579074e+02
3.3091373e+02
5.1954803e+02
3.3469702e+02
4.7790298e+02
3.4334814e+02
4.4023117e+02
4.3446735e+02
4.2691367e+02
4.2071939e+02
3.5597031e+02
4.1611713e+02
4.1335172e+02
3.7175885e+02
4.1270422e+02
3.7958896e+02
3.8652917e+02
3.9004797e+02
3.9817569e+02
4.1449573e+02
4.1133957e+02
4.2567389e+02
4.1884808e+02
4.4090723e+02
4.1040845e+02
4.5674683e+02
4.2931241e+02
4.3193317e+02
4.7294238e+02
3.8937799e+02
3.7141855e+02
3.4692416e+02
4.8887094e+02
3.3482864e+02
3.2897000e+02
4.6013541e+02
3.2922736e+02
5.0854758e+02
3.3464505e+02
4.6820007e+02
3.4427191e+02
4.2767447e+02
4.2148206e+02
4.1328079e+02
4.0642880e+02
3.5720312e+02
4.0116611e+02
3.9775214e+02
3.7267535e+02
3.9650031e+02
3.6204941e+02
3.6949585e+02
3.8194543e+02
3.9009042e+02
3.9778333e+02
3.9596826e+02
4.1119009e+02
4.0179541e+02
4.2731760e+02
4.0909564e+02
4.4403122e+02
4.1222809e+02
4.2884955e+02
4.6105118e+02
3.7373996e+02
3.5925790e+02
3.3754626e+02
4.7770279e+02
3.2836038e+02
4.5501541e+02
3.2517105e+02
4.9809918e+02
3.2766333e+02
3.3474026e+02
4.5904691e+02
3.4538272e+02
4.1523206e+02
4.0861771e+02
3.9977750e+02
3.5867987e+02
3.9227448e+02
3.8634802e+02
3.8226486e+02
3.7390475e+02
3.8036801e+02
3.4474329e+02
3.5271686e+02
3.9051959e+02
3.6600208e+02
3.8108603e+02
3.8091913e+02
3.9706744e+02
3.8469992e+02
4.0824255e+02
4.1413345e+02
4.3177130e+02
3.9506485e+02
4.2629605e+02
4.4967023e+02
3.5805341e+02
3.4706778e+02
3.2818286e+02
4.6709915e+02
3.2194873e+02
4.5048798e+02
3.2146045e+02
4.8826312e+02
3.2621918e+02
3.3499860e+02
4.5051404e+02
3.4671735e+02
4.0282681e+02
3.9580606e+02
3.8635208e+02
3.6045566e+02
3.7822522e+02
3.7165253e+02
3.7551459e+02
3.6689658e+02
3.6432321e+02
3.2775113e+02
3.3626694e+02
3.5041068e+02
3.9140836e+02
3.6624738e+02
3.6441916e+02
3.8335257e+02
4.0139545e+02
4.0792163e+02
3.6756824e+02
4.2000586e+02
3.7781741e+02
4.2434222e+02
4.3884183e+02
3.4232159e+02
3.3483246e+02
4.5711145e+02
3.1880548e+02
3.1555942e+02
4.4662100e+02
3.1780991e+02
4.7910364e+02
3.2488574e+02
3.3543936e+02
4.4268158e+02
3.4832602e+02
3.9035178e+02
3.8294989e+02
3.7292691e+02
3.6260727e+02
3.6422919e+02
3.5705527e+02
3.7759933e+02
3.5164658e+02
3.4837958e+02
3.1116434e+02
3.2022931e+02
3.9285806e+02
3.3524127e+02
3.5200983e+02
3.4779807e+02
3.7009039e+02
3.8913992e+02
4.0823123e+02
3.5040552e+02
4.0876782e+02
3.6047525e+02
4.2307806e+02
4.2860257e+02
3.2654492e+02
4.4778818e+02
3.2252023e+02
3.0936224e+02
3.0913373e+02
4.4349603e+02
3.1417328e+02
4.7068759e+02
3.2364771e+02
3.3608945e+02
4.3563983e+02
3.5027963e+02
3.7766492e+02
3.6991708e+02
3.6524280e+02
3.5939227e+02
3.5020786e+02
3.4251257e+02
3.8029108e+02
3.3650244e+02
2.9508276e+02
3.0469321e+02
3.3254523e+02
3.2056628e+02
3.9500906e+02
3.3826202e+02
3.3123514e+02
3.5732111e+02
3.7739542e+02
4.0930518e+02
3.3321219e+02
3.9808041e+02
3.4301770e+02
4.2262106e+02
4.1897925e+02
4.3917117e+02
3.1071710e+02
3.1007440e+02
2.9976816e+02
4.4121161e+02
3.0258167e+02
4.6308188e+02
3.1048431e+02
3.2248672e+02
4.2948874e+02
3.3699118e+02
3.5268109e+02
3.6458453e+02
3.6851468e+02
3.5653528e+02
3.4560019e+02
3.3604990e+02
3.2795532e+02
3.8377362e+02
3.2143469e+02
2.7961011e+02
2.8974948e+02
3.1681805e+02
3.9805460e+02
3.0645648e+02
3.2505475e+02
3.4507684e+02
3.1473563e+02
3.6617899e+02
4.1132489e+02
3.1597903e+02
3.8795279e+02
4.2312497e+02
3.2540710e+02
4.0998413e+02
4.3129068e+02
2.9481961e+02
2.9740170e+02
2.8989465e+02
4.3988751e+02
2.9577631e+02
4.5634991e+02
3.0665829e+02
3.2139005e+02
4.2433676e+02
3.3821640e+02
3.5568268e+02
3.7263873e+02
3.5088672e+02
3.4258807e+02
3.3135989e+02
3.2160562e+02
3.8830124e+02
3.1328329e+02
3.0639084e+02
2.6484695e+02
2.7548444e+02
2.9297635e+02
4.0225827e+02
3.0118018e+02
3.1243042e+02
3.3337842e+02
2.9829190e+02
3.5549289e+02
4.1453418e+02
2.9867984e+02
3.7837579e+02
4.2479059e+02
4.0160956e+02
3.0757874e+02
4.2415955e+02
2.7881342e+02
2.8435770e+02
4.3966925e+02
2.7955862e+02
2.8855188e+02
4.5054651e+02
3.0260110e+02
3.2036896e+02
4.2029810e+02
3.3989066e+02
3.5951263e+02
3.7792056e+02
3.3630618e+02
3.2781458e+02
3.1643594e+02
3.0668427e+02
3.9422330e+02
2.9836115e+02
2.9129059e+02
2.5088130e+02
2.6197202e+02
4.0797589e+02
2.8017899e+02
2.8559235e+02
3.0042017e+02
3.2223364e+02
2.8187708e+02
3.4532263e+02
4.1925787e+02
2.8126279e+02
3.6931915e+02
4.2787885e+02
3.9382333e+02
2.8942731e+02
4.1776685e+02
2.6262903e+02
2.7073004e+02
4.4073328e+02
2.6851556e+02
2.8071222e+02
4.4571146e+02
2.9823352e+02
3.1949426e+02
4.1748792e+02
3.4223413e+02
3.6451587e+02
3.8479242e+02
3.2054257e+02
3.1191431e+02
3.0055179e+02
2.9105582e+02
4.0201627e+02
2.8301831e+02
2.7602371e+02
2.3777650e+02
2.4926498e+02
4.1568250e+02
2.6810150e+02
2.6999014e+02
2.8904248e+02
3.1163782e+02
2.6543951e+02
4.2592313e+02
3.3563800e+02
3.6073105e+02
2.6364127e+02
4.3272620e+02
3.8656604e+02
2.7079083e+02
4.1207248e+02
2.4615666e+02
4.4329321e+02
2.5622299e+02
2.5646326e+02
4.4186246e+02
2.7205997e+02
2.9354315e+02
3.1896094e+02
4.1601642e+02
3.4562738e+02
3.7121396e+02
3.9386401e+02
3.0327490e+02
2.9456012e+02
2.8340128e+02
2.7446054e+02
4.1232434e+02
2.6705594e+02
2.2555814e+02
2.6045398e+02
2.3738599e+02
2.5676202e+02
4.2600388e+02
2.7830475e+02
2.5428589e+02
3.0157822e+02
2.4890265e+02
3.2639877e+02
4.3508429e+02
3.5254312e+02
2.4568846e+02
4.3976202e+02
3.7975272e+02
2.5143472e+02
4.0700443e+02
4.4760684e+02
2.2924434e+02
2.4045107e+02
2.4307271e+02
4.3898862e+02
2.6246933e+02
2.8868661e+02
3.1919855e+02
4.1598190e+02
3.5071429e+02
3.8039166e+02
4.0599048e+02
2.8418747e+02
2.7542270e+02
2.6467157e+02
4.2601019e+02
2.5662982e+02
2.5026448e+02
2.1420045e+02
2.2631926e+02
2.4443372e+02
2.4615834e+02
4.3975311e+02
2.6820746e+02
2.3838100e+02
2.9204343e+02
3.1756729e+02
4.4744867e+02
2.3217683e+02
3.4468329e+02
2.2724498e+02
4.4952707e+02
3.7328262e+02
2.3104402e+02
4.0246219e+02
4.5398502e+02
2.1172290e+02
2.2296138e+02
4.3704758e+02
2.2808067e+02
2.5204359e+02
2.8417682e+02
4.1746527e+02
3.2105005e+02
3.5855209e+02
3.9321420e+02
4.2235925e+02
2.6301120e+02
2.5421034e+02
2.4408083e+02
4.4421545e+02
2.3732126e+02
2.3245572e+02
2.0361397e+02
2.1600331e+02
2.2783342e+02
2.3626712e+02
4.5797012e+02
2.5875034e+02
2.2219720e+02
2.8303687e+02
3.0912927e+02
4.6390167e+02
2.1519594e+02
3.3710071e+02
2.0815726e+02
4.6269031e+02
3.6706226e+02
2.0924352e+02
3.9833215e+02
4.6280188e+02
1.9350703e+02
2.0333189e+02
4.3597043e+02
2.1152109e+02
2.4143274e+02
2.8120062e+02
4.2053006e+02
3.2603400e+02
3.7081006e+02
4.1137299e+02
4.4459442e+02
2.3958578e+02
2.3072827e+02
2.2143384e+02
4.6843066e+02
2.1637042e+02
2.1351114e+02
1.9363480e+02
2.0632317e+02
2.2704016e+02
4.8196243e+02
2.1059082e+02
2.4993518e+02
2.7459140e+02
2.0573503e+02
3.0112265e+02
4.8552612e+02
1.9799895e+02
3.2980545e+02
1.8838541e+02
4.8005923e+02
3.6104761e+02
1.8569481e+02
3.9452200e+02
4.7450504e+02
1.7488722e+02
4.3568207e+02
1.8147040e+02
1.9425940e+02
2.3241817e+02
2.8208643e+02
4.2523291e+02
3.3666876e+02
3.8999011e+02
4.3724420e+02
4.7487183e+02
2.1394858e+02
2.0496286e+02
5.0057330e+02
1.9669688e+02
1.9375856e+02
1.9344534e+02
1.8401613e+02
1.9709904e+02
5.1334473e+02
2.1839049e+02
1.9277904e+02
2.4175723e+02
2.6677740e+02
1.8916739e+02
5.1361078e+02
2.9366998e+02
1.8088474e+02
3.2292508e+02
1.6826016e+02
5.0257352e+02
3.5531326e+02
3.9102371e+02
1.6039911e+02
4.8962164e+02
4.3614499e+02
1.5723755e+02
1.5842526e+02
1.7911516e+02
2.2878481e+02
2.9080313e+02
4.3165039e+02
3.5673956e+02
4.1960095e+02
4.7402704e+02
5.1603955e+02
5.4307513e+02
1.8645876e+02
1.7719522e+02
1.7009196e+02
1.6969104e+02
1.7442319e+02
1.7247540e+02
1.8806873e+02
5.5408276e+02
2.1015962e+02
2.3417282e+02
1.7468373e+02
2.5968945e+02
1.7296387e+02
5.4964142e+02
2.8700220e+02
1.6467020e+02
3.1677133e+02
5.3127087e+02
1.4904288e+02
3.5015063e+02
3.8801596e+02
1.3457292e+02
5.0874493e+02
4.3743704e+02
1.4417310e+02
1.3834512e+02
1.7256979e+02
2.3697653e+02
4.3992694e+02
3.1304868e+02
3.9127982e+02
4.6418106e+02
5.2584045e+02
5.7174408e+02
5.9900262e+02
1.5796440e+02
1.4815219e+02
1.4220866e+02
1.4467723e+02
1.6443620e+02
1.7886240e+02
1.5107509e+02
2.0206058e+02
6.0654950e+02
2.2702936e+02
1.5685715e+02
2.5339255e+02
1.5800179e+02
2.8144812e+02
5.9528558e+02
3.1189688e+02
1.5101334e+02
5.6720654e+02
3.4618939e+02
1.3394908e+02
3.8601041e+02
1.1315327e+02
5.3249292e+02
4.3987048e+02
1.4244772e+02
1.3158586e+02
1.8501768e+02
2.6505951e+02
4.5033789e+02
3.5534940e+02
4.4606238e+02
5.2914478e+02
5.9778583e+02
6.4662238e+02
6.7223987e+02
1.3000104e+02
1.1920164e+02
1.1414013e+02
1.1959834e+02
1.5357323e+02
1.6897990e+02
6.7365259e+02
1.9359882e+02
1.2998445e+02
2.1995879e+02
1.4007759e+02
2.4780710e+02
2.7735547e+02
6.5237518e+02
1.4552165e+02
3.0909552e+02
1.4248985e+02
6.1135114e+02
3.4450726e+02
1.2886104e+02
3.8603619e+02
1.0901329e+02
5.6139972e+02
4.4415604e+02
1.6170648e+02
1.5337946e+02
2.2574376e+02
3.1943799e+02
4.6336020e+02
4.2329288e+02
5.2678320e+02
6.2054486e+02
6.9612866e+02
7.4663690e+02
7.6786823e+02
1.0492510e+02
9.2572792e+01
8.7668320e+01
1.4134389e+02
9.5785088e+01
1.5778348e+02
1.8400349e+02
7.5903668e+02
1.1013795e+02
2.1225217e+02
1.2513044e+02
2.4254903e+02
2.7490231e+02
7.2300842e+02
1.3666986e+02
3.0927985e+02
1.4163763e+02
6.6447278e+02
3.4665585e+02
1.3963638e+02
3.8982452e+02
1.3667023e+02
5.9583154e+02
4.5159955e+02
2.1014995e+02
2.1160193e+02
2.9671579e+02
4.7971371e+02
4.0215723e+02
5.2004431e+02
6.3829272e+02
7.4508838e+02
8.2878479e+02
8.7981433e+02
8.9270709e+02
8.5510803e+01
7.1382515e+01
6.5524765e+01
1.2734066e+02
1.4453885e+02
7.5170769e+01
1.7222302e+02
8.6757635e+02
2.0281613e+02
9.2628891e+01
2.3675888e+02
1.1239074e+02
2.7384042e+02
8.0966016e+02
1.3152454e+02
3.1314603e+02
1.4873743e+02
7.2729431e+02
3.5449081e+02
1.6651706e+02
3.9993201e+02
6.3597485e+02
1.9296999e+02
4.6436795e+02
2.8784369e+02
3.0141074e+02
3.9369366e+02
5.0045810e+02
5.1050589e+02
6.4544861e+02
7.8421436e+02
9.1049677e+02
1.0066386e+03
1.0576141e+03
1.0563250e+03
7.3111092e+01
5.8429394e+01
5.1302197e+01
1.1134929e+02
1.2852182e+02
1.5709227e+02
1.0052930e+03
6.0541130e+01
1.9033133e+02
7.8972572e+01
2.2914120e+02
1.0186803e+02
9.1559521e+02
2.7314804e+02
1.2825089e+02
3.2070108e+02
1.5987959e+02
8.0091992e+02
3.6963593e+02
2.0286292e+02
4.1969763e+02
6.8256525e+02
2.6707028e+02
4.8594452e+02
3.9132608e+02
4.1500220e+02
5.0899384e+02
5.2724200e+02
6.3701221e+02
7.9463184e+02
9.6616223e+02
1.1273755e+03
1.2465916e+03
1.2972578e+03
1.2707231e+03
6.5068657e+01
5.2944366e+01
9.3421432e+01
4.7182056e+01
1.0924266e+02
1.3776245e+02
1.1786702e+03
5.5168079e+01
1.7380833e+02
7.1869278e+01
2.1832372e+02
9.4754799e+01
2.7098889e+02
1.0434026e+03
1.2474727e+02
3.3024020e+02
1.6781189e+02
8.8779822e+02
3.9269299e+02
2.3596449e+02
4.5288959e+02
7.3866248e+02
3.4618057e+02
5.2197894e+02
5.1414221e+02
5.4076447e+02
5.6388501e+02
6.2713123e+02
7.7017651e+02
9.6044855e+02
1.1831572e+03
1.4101736e+03
1.5780088e+03
1.6286539e+03
1.5496458e+03
5.5263741e+01
4.9640255e+01
7.3875389e+01
8.6813370e+01
5.1168465e+01
1.3823384e+03
1.1453831e+02
6.1047546e+01
1.5342894e+02
7.6094910e+01
2.0359984e+02
9.6405212e+01
1.1866439e+03
2.6490323e+02
1.2506234e+02
3.3762561e+02
9.9272449e+02
1.6920512e+02
4.2010785e+02
2.5039636e+02
5.0327515e+02
8.1600769e+02
4.0433246e+02
5.8276532e+02
6.3998724e+02
6.1911890e+02
6.4828320e+02
7.2582379e+02
9.0221124e+02
1.1444220e+03
1.4339502e+03
1.7742255e+03
2.0651023e+03
2.1079595e+03
1.8849749e+03
5.3104786e+01
3.8533688e+01
6.2716904e+01
4.4678272e+01
9.0053574e+01
1.5586400e+03
6.0801796e+01
1.3118558e+02
7.8430260e+01
1.8479825e+02
9.6701286e+01
2.5213785e+02
1.3057822e+03
1.1736492e+02
3.3597260e+02
1.4404608e+02
1.1255459e+03
4.4086438e+02
1.8340681e+02
5.6355457e+02
2.4633264e+02
9.3916345e+02
6.8788068e+02
3.9588980e+02
7.1925647e+02
7.0852631e+02
7.1562939e+02
8.2264728e+02
1.0556393e+03
1.3583271e+03
1.7594031e+03
2.3183479e+03
2.8921704e+03
2.7684827e+03
2.0884307e+03
3.1906769e+01
4.1486691e+01
2.5871674e+01
4.3007118e+01
1.5843125e+03
6.9696472e+01
7.0734283e+01
1.0967625e+02
9.5965309e+01
1.6164511e+02
1.2010480e+02
2.2940512e+02
1.3546538e+03
1.4602902e+02
3.1899280e+02
1.7750775e+02
1.2891071e+03
4.4008362e+02
2.2074300e+02
6.0891052e+02
2.8580017e+02
1.2028124e+03
8.3273950e+02
3.5219601e+02
9.2700946e+02
6.8752368e+02
8.1305597e+02
9.4800409e+02
1.1791304e+03
1.5132618e+03
2.0040714e+03
2.8505139e+03
3.7227458e+03
2.7228914e+03
3.0826807e+03
1.6452040e+03
2.0028265e+03
1.9520637e+03
2.0690670e+01
3.3876369e+01
6.1698593e+01
1.3833925e+03
1.3573843e+03
9.7330444e+01
1.4897037e+03
1.4456172e+02
4.3617319e+03
2.0846664e+02
1.2987639e+03
1.3351609e+03
1.4098408e+03
2.9654507e+02
3.0028860e+03
1.3255004e+03
1.3127908e+03
1.3816375e+03
8.9709277e+03
4.1893317e+02
2.2054561e+03
5.9533136e+02
5.7967021e+03
1.3496726e+03
1.2460925e+03
1.5196256e+03
1.4411021e+03
8.7633185e+02
2.1029507e+03
1.1240106e+03
1.4999543e+03
1.1071202e+03
1.4831873e+03
1.3853921e+03
9.8988226e+02
8.0922015e+02
9.0081451e+02
1.7204270e+03
5.2203229e+02
5.6496954e+02
8.1317560e+02
2.9253082e+02
3.4462411e+02
1.3980519e+02
CELL_DATA 3428
FIELD FieldData 0
